Cs1 Cl1                                 
   1.00000000000000     
     4.0754486390690632   -0.0000000000000000   -0.0000000000000000
    -0.0000000000000000    4.0754486390690632   -0.0000000000000000
     0.0000000000000000    0.0000000000000000    4.0754486390690632
   Cs   Cl
     1     1
Direct
     0.0000000000000000    0.0000000000000000    0.0000000000000000
     0.5000000000000000    0.5000000000000000    0.5000000000000000
 
  0.00000000E+00  0.00000000E+00  0.00000000E+00
  0.00000000E+00  0.00000000E+00  0.00000000E+00
