Zn3 S5
1.0
   7.5631677474    0.0000000000    0.0000000000
  -1.8907919369    3.2749477012    0.0000000000
   0.0000000000    0.0000000000    6.2047662326
Zn S
3 5
direct
   0.8333333333    0.3333333333    0.5004008683 Zn
   0.1666666667    0.6666666667    0.0004008683 Zn
   0.6666666667    0.6666666667    0.0004008683 Zn
   0.3333333333    0.3333333333    0.5004008683 S
   0.3288447161    0.3319351904    0.8785272658 S
   0.8333333333    0.3333333333    0.8745991317 S
   0.1767560666    0.6776860105    0.3980490968 S
   0.6509664582    0.6283860783    0.3791527436 S
