Cs27 Cl26                               
    1.000000000000000     
    12.2263459171999997    0.0000000000000000    0.0000000000000000
     0.0000000000000000   12.2263459171999997    0.0000000000000000
     0.0000000000000000    0.0000000000000000   12.2263459171999997
   Cs   Cl
    27    26
Direct
     0.0006195230845832    0.0010691820751090    0.0002391540927608
     0.0007949078437141    0.0030648736440781    0.3324657059768552
     0.9995822241960703    0.0001795060528034    0.6661226535386099
     0.0001011866266347    0.3337989167107013    0.0000048602206515
     0.0006729701187527    0.3346920571664672    0.3320899463902338
     0.9994499503489030    0.3341228292688504    0.6659706499755645
     0.9995089551118166    0.6673677575766388    0.9994907192857273
     0.9994188478006268    0.6687737043341173    0.3337958470746237
     0.9995955744960332    0.6670759403935511    0.6667159963297032
     0.3328819829192111    0.0014996101149045    0.0006436231790808
     0.3344631437280380    0.0003909760206640    0.3329736813332320
     0.3339067113340515    0.9997130168626940    0.6671101278942748
     0.3332976328611547    0.3332174606832872    0.9989421812512482
     0.3325426367212903    0.3333305052669416    0.3311109296337844
     0.3337281922071214    0.3340649771657961    0.6652538738911189
     0.3334222386801149    0.6677017685425070    0.9996004082937487
     0.3340369920364567    0.6672493673439309    0.3338774738470323
     0.3337018229886075    0.6672138769739823    0.6666868871775881
     0.6670472678988248    0.0001193299558104    0.9995030132718811
     0.6676922597994012    0.9994737655911049    0.3340328035524465
     0.6665483443418752    0.0001216784438611    0.6659686043735596
     0.6669636079096269    0.3338827588853915    0.9993791167164863
     0.6665463763780520    0.3339913792970759    0.3334973432969972
     0.6666905451843901    0.3336286775094668    0.6663287511126255
     0.6663255812933806    0.6666862953726954    0.9996126420966127
     0.6663174655144587    0.6668412469726896    0.3336424815189103
     0.6661295870249098    0.6671501299639216    0.6660812127090988
     0.1671554428950079    0.1668796825997534    0.5030557586525846
     0.1660450440832094    0.1681996411031350    0.8281117447762183
     0.1658130457335661    0.5054554462457380    0.1651871448430678
     0.1662701157704081    0.5010768059022370    0.4989372594710693
     0.1664805082738398    0.5013006263432235    0.8320656167082564
     0.1669931068468486    0.8308080189193948    0.1672451130085426
     0.1673575543012198    0.8337495870340539    0.5008222267012017
     0.1664127832438733    0.8342455451778935    0.8335256887704312
     0.5038868191846697    0.1666321108592866    0.1663799354250098
     0.5008536866007166    0.1664744778704421    0.5001110361275936
     0.5000680668233727    0.1673025263590968    0.8325337354053832
     0.4995826440942630    0.5005641741863943    0.1659047044586010
     0.5008012192983124    0.5006303972304437    0.5001088400692197
     0.5003845497758824    0.5017145492945569    0.8316574376463558
     0.5006793990216104    0.8331213730324177    0.1673030395872251
     0.5012847626391043    0.8320601684165768    0.5012155350101776
     0.5009537420476858    0.8329312789633825    0.8328549541519819
     0.8290469809169577    0.1680635742478079    0.1658975540035850
     0.8333303165476803    0.1677671021244226    0.4997022048996053
     0.8325449626120617    0.1669824962799911    0.8322551515182410
     0.8325777558555418    0.5015597332992496    0.1662669768215314
     0.8322945539017331    0.5018313341641143    0.5001170266414454
     0.8319396791670423    0.5018029092067805    0.8318636271142495
     0.8331606579473319    0.8343826172504260    0.1664424579339631
     0.8330895918312100    0.8332409742386643    0.5008425807538189
     0.8322513245387430    0.8332240110614753    0.8323265726661835
 
  0.00000000E+00  0.00000000E+00  0.00000000E+00
  0.00000000E+00  0.00000000E+00  0.00000000E+00
  0.00000000E+00  0.00000000E+00  0.00000000E+00
  0.00000000E+00  0.00000000E+00  0.00000000E+00
  0.00000000E+00  0.00000000E+00  0.00000000E+00
  0.00000000E+00  0.00000000E+00  0.00000000E+00
  0.00000000E+00  0.00000000E+00  0.00000000E+00
  0.00000000E+00  0.00000000E+00  0.00000000E+00
  0.00000000E+00  0.00000000E+00  0.00000000E+00
  0.00000000E+00  0.00000000E+00  0.00000000E+00
  0.00000000E+00  0.00000000E+00  0.00000000E+00
  0.00000000E+00  0.00000000E+00  0.00000000E+00
  0.00000000E+00  0.00000000E+00  0.00000000E+00
  0.00000000E+00  0.00000000E+00  0.00000000E+00
  0.00000000E+00  0.00000000E+00  0.00000000E+00
  0.00000000E+00  0.00000000E+00  0.00000000E+00
  0.00000000E+00  0.00000000E+00  0.00000000E+00
  0.00000000E+00  0.00000000E+00  0.00000000E+00
  0.00000000E+00  0.00000000E+00  0.00000000E+00
  0.00000000E+00  0.00000000E+00  0.00000000E+00
  0.00000000E+00  0.00000000E+00  0.00000000E+00
  0.00000000E+00  0.00000000E+00  0.00000000E+00
  0.00000000E+00  0.00000000E+00  0.00000000E+00
  0.00000000E+00  0.00000000E+00  0.00000000E+00
  0.00000000E+00  0.00000000E+00  0.00000000E+00
  0.00000000E+00  0.00000000E+00  0.00000000E+00
  0.00000000E+00  0.00000000E+00  0.00000000E+00
  0.00000000E+00  0.00000000E+00  0.00000000E+00
  0.00000000E+00  0.00000000E+00  0.00000000E+00
  0.00000000E+00  0.00000000E+00  0.00000000E+00
  0.00000000E+00  0.00000000E+00  0.00000000E+00
  0.00000000E+00  0.00000000E+00  0.00000000E+00
  0.00000000E+00  0.00000000E+00  0.00000000E+00
  0.00000000E+00  0.00000000E+00  0.00000000E+00
  0.00000000E+00  0.00000000E+00  0.00000000E+00
  0.00000000E+00  0.00000000E+00  0.00000000E+00
  0.00000000E+00  0.00000000E+00  0.00000000E+00
  0.00000000E+00  0.00000000E+00  0.00000000E+00
  0.00000000E+00  0.00000000E+00  0.00000000E+00
  0.00000000E+00  0.00000000E+00  0.00000000E+00
  0.00000000E+00  0.00000000E+00  0.00000000E+00
  0.00000000E+00  0.00000000E+00  0.00000000E+00
  0.00000000E+00  0.00000000E+00  0.00000000E+00
  0.00000000E+00  0.00000000E+00  0.00000000E+00
  0.00000000E+00  0.00000000E+00  0.00000000E+00
  0.00000000E+00  0.00000000E+00  0.00000000E+00
  0.00000000E+00  0.00000000E+00  0.00000000E+00
  0.00000000E+00  0.00000000E+00  0.00000000E+00
  0.00000000E+00  0.00000000E+00  0.00000000E+00
  0.00000000E+00  0.00000000E+00  0.00000000E+00
  0.00000000E+00  0.00000000E+00  0.00000000E+00
  0.00000000E+00  0.00000000E+00  0.00000000E+00
  0.00000000E+00  0.00000000E+00  0.00000000E+00
