Cs27 Cl26
1.0
  12.2263459172    0.0000000000    0.0000000000
   0.0000000000   12.2263459172    0.0000000000
   0.0000000000    0.0000000000   12.2263459172
Cs Cl
27 26
direct
   0.9942645039    0.0074821353    0.9970808938 Cs
   0.0082124351    0.0079972872    0.3348501980 Cs
   0.0000000000    0.0000000000    0.6666666667 Cs
   0.9999457915    0.3382226066    0.9931110353 Cs
   0.9890091085    0.3395452538    0.3278074401 Cs
   0.0000000000    0.3333333333    0.6666666667 Cs
   0.0000000000    0.6666666667    0.0000000000 Cs
   0.0000000000    0.6666666667    0.3333333333 Cs
   0.0000000000    0.6666666667    0.6666666667 Cs
   0.3313513181    0.0027774591    0.0023372530 Cs
   0.3356304153    0.9861736926    0.3405354808 Cs
   0.3333333333    0.0000000000    0.6666666667 Cs
   0.3217318834    0.3412610158    0.9924049493 Cs
   0.3374294375    0.3341649734    0.3224798308 Cs
   0.3333333333    0.3333333333    0.6666666667 Cs
   0.3333333333    0.6666666667    0.0000000000 Cs
   0.3333333333    0.6666666667    0.3333333333 Cs
   0.3333333333    0.6666666667    0.6666666667 Cs
   0.6666666667    0.0000000000    0.0000000000 Cs
   0.6666666667    0.0000000000    0.3333333333 Cs
   0.6666666667    0.0000000000    0.6666666667 Cs
   0.6666666667    0.3333333333    0.0000000000 Cs
   0.6666666667    0.3333333333    0.3333333333 Cs
   0.6666666667    0.3333333333    0.6666666667 Cs
   0.6666666667    0.6666666667    0.0000000000 Cs
   0.6666666667    0.6666666667    0.3333333333 Cs
   0.6666666667    0.6666666667    0.6666666667 Cs
   0.1672917372    0.1717168874    0.4944968817 Cl
   0.1751901804    0.1661564105    0.8339271880 Cl
   0.1685278601    0.5006460031    0.1707640515 Cl
   0.1666666667    0.5000000000    0.5000000000 Cl
   0.1666666667    0.5000000000    0.8333333333 Cl
   0.1667767919    0.8434922557    0.1729989240 Cl
   0.1666666667    0.8333333333    0.5000000000 Cl
   0.1666666667    0.8333333333    0.8333333333 Cl
   0.4993171394    0.1675534898    0.1670694449 Cl
   0.5000000000    0.1666666667    0.5000000000 Cl
   0.5000000000    0.1666666667    0.8333333333 Cl
   0.5000000000    0.5000000000    0.1666666667 Cl
   0.5000000000    0.5000000000    0.5000000000 Cl
   0.5000000000    0.5000000000    0.8333333333 Cl
   0.5000000000    0.8333333333    0.1666666667 Cl
   0.5000000000    0.8333333333    0.5000000000 Cl
   0.5000000000    0.8333333333    0.8333333333 Cl
   0.8385662401    0.1612332793    0.1640110400 Cl
   0.8333333333    0.1666666667    0.5000000000 Cl
   0.8333333333    0.1666666667    0.8333333333 Cl
   0.8333333333    0.5000000000    0.1666666667 Cl
   0.8333333333    0.5000000000    0.5000000000 Cl
   0.8333333333    0.5000000000    0.8333333333 Cl
   0.8333333333    0.8333333333    0.1666666667 Cl
   0.8333333333    0.8333333333    0.5000000000 Cl
   0.8333333333    0.8333333333    0.8333333333 Cl
