Cs1 Cl1                                 
    1.000000000000000     
     4.0754486391000002    0.0000000000000000    0.0000000000000000
     0.0000000000000000    4.0754486391000002    0.0000000000000000
     0.0000000000000000    0.0000000000000000    4.0754486391000002
   Cs   Cl
     1     1
Direct
     0.0000000000000000    0.0000000000000000    0.0000000000000000
     0.5000000000000000    0.5000000000000000    0.5000000000000000
 
  0.00000000E+00  0.00000000E+00  0.00000000E+00
  0.00000000E+00  0.00000000E+00  0.00000000E+00
