k-path added by seekpath. Formula: CsCl SG: 221 
229
Reciprocal
 0.12500000000000000  0.12500000000000000  0.12500000000000000   8 None
 0.37500000000000000  0.12500000000000000  0.12500000000000000  24 None
 0.37500000000000000  0.37500000000000000  0.12500000000000000  24 None
 0.37500000000000000  0.37500000000000000  0.37500000000000000   8 None
 0.00000000000000000  0.00000000000000000  0.00000000000000000   0 GAMMA
 0.00000000000000000  0.01724137931034483  0.00000000000000000   0 
 0.00000000000000000  0.03448275862068965  0.00000000000000000   0 
 0.00000000000000000  0.05172413793103448  0.00000000000000000   0 
 0.00000000000000000  0.06896551724137931  0.00000000000000000   0 
 0.00000000000000000  0.08620689655172414  0.00000000000000000   0 
 0.00000000000000000  0.10344827586206896  0.00000000000000000   0 
 0.00000000000000000  0.12068965517241380  0.00000000000000000   0 
 0.00000000000000000  0.13793103448275862  0.00000000000000000   0 
 0.00000000000000000  0.15517241379310345  0.00000000000000000   0 
 0.00000000000000000  0.17241379310344829  0.00000000000000000   0 
 0.00000000000000000  0.18965517241379309  0.00000000000000000   0 
 0.00000000000000000  0.20689655172413793  0.00000000000000000   0 
 0.00000000000000000  0.22413793103448276  0.00000000000000000   0 
 0.00000000000000000  0.24137931034482760  0.00000000000000000   0 
 0.00000000000000000  0.25862068965517243  0.00000000000000000   0 
 0.00000000000000000  0.27586206896551724  0.00000000000000000   0 
 0.00000000000000000  0.29310344827586204  0.00000000000000000   0 
 0.00000000000000000  0.31034482758620691  0.00000000000000000   0 
 0.00000000000000000  0.32758620689655171  0.00000000000000000   0 
 0.00000000000000000  0.34482758620689657  0.00000000000000000   0 
 0.00000000000000000  0.36206896551724138  0.00000000000000000   0 
 0.00000000000000000  0.37931034482758619  0.00000000000000000   0 
 0.00000000000000000  0.39655172413793105  0.00000000000000000   0 
 0.00000000000000000  0.41379310344827586  0.00000000000000000   0 
 0.00000000000000000  0.43103448275862066  0.00000000000000000   0 
 0.00000000000000000  0.44827586206896552  0.00000000000000000   0 
 0.00000000000000000  0.46551724137931033  0.00000000000000000   0 
 0.00000000000000000  0.48275862068965519  0.00000000000000000   0 
 0.00000000000000000  0.50000000000000000  0.00000000000000000   0 X
 0.01724137931034483  0.50000000000000000  0.00000000000000000   0 
 0.03448275862068965  0.50000000000000000  0.00000000000000000   0 
 0.05172413793103448  0.50000000000000000  0.00000000000000000   0 
 0.06896551724137931  0.50000000000000000  0.00000000000000000   0 
 0.08620689655172414  0.50000000000000000  0.00000000000000000   0 
 0.10344827586206896  0.50000000000000000  0.00000000000000000   0 
 0.12068965517241380  0.50000000000000000  0.00000000000000000   0 
 0.13793103448275862  0.50000000000000000  0.00000000000000000   0 
 0.15517241379310345  0.50000000000000000  0.00000000000000000   0 
 0.17241379310344829  0.50000000000000000  0.00000000000000000   0 
 0.18965517241379309  0.50000000000000000  0.00000000000000000   0 
 0.20689655172413793  0.50000000000000000  0.00000000000000000   0 
 0.22413793103448276  0.50000000000000000  0.00000000000000000   0 
 0.24137931034482760  0.50000000000000000  0.00000000000000000   0 
 0.25862068965517243  0.50000000000000000  0.00000000000000000   0 
 0.27586206896551724  0.50000000000000000  0.00000000000000000   0 
 0.29310344827586204  0.50000000000000000  0.00000000000000000   0 
 0.31034482758620691  0.50000000000000000  0.00000000000000000   0 
 0.32758620689655171  0.50000000000000000  0.00000000000000000   0 
 0.34482758620689657  0.50000000000000000  0.00000000000000000   0 
 0.36206896551724138  0.50000000000000000  0.00000000000000000   0 
 0.37931034482758619  0.50000000000000000  0.00000000000000000   0 
 0.39655172413793105  0.50000000000000000  0.00000000000000000   0 
 0.41379310344827586  0.50000000000000000  0.00000000000000000   0 
 0.43103448275862066  0.50000000000000000  0.00000000000000000   0 
 0.44827586206896552  0.50000000000000000  0.00000000000000000   0 
 0.46551724137931033  0.50000000000000000  0.00000000000000000   0 
 0.48275862068965519  0.50000000000000000  0.00000000000000000   0 
 0.50000000000000000  0.50000000000000000  0.00000000000000000   0 M
 0.48809523809523808  0.48809523809523808  0.00000000000000000   0 
 0.47619047619047616  0.47619047619047616  0.00000000000000000   0 
 0.46428571428571430  0.46428571428571430  0.00000000000000000   0 
 0.45238095238095238  0.45238095238095238  0.00000000000000000   0 
 0.44047619047619047  0.44047619047619047  0.00000000000000000   0 
 0.42857142857142860  0.42857142857142860  0.00000000000000000   0 
 0.41666666666666669  0.41666666666666669  0.00000000000000000   0 
 0.40476190476190477  0.40476190476190477  0.00000000000000000   0 
 0.39285714285714285  0.39285714285714285  0.00000000000000000   0 
 0.38095238095238093  0.38095238095238093  0.00000000000000000   0 
 0.36904761904761907  0.36904761904761907  0.00000000000000000   0 
 0.35714285714285715  0.35714285714285715  0.00000000000000000   0 
 0.34523809523809523  0.34523809523809523  0.00000000000000000   0 
 0.33333333333333337  0.33333333333333337  0.00000000000000000   0 
 0.32142857142857140  0.32142857142857140  0.00000000000000000   0 
 0.30952380952380953  0.30952380952380953  0.00000000000000000   0 
 0.29761904761904762  0.29761904761904762  0.00000000000000000   0 
 0.28571428571428570  0.28571428571428570  0.00000000000000000   0 
 0.27380952380952384  0.27380952380952384  0.00000000000000000   0 
 0.26190476190476192  0.26190476190476192  0.00000000000000000   0 
 0.25000000000000000  0.25000000000000000  0.00000000000000000   0 
 0.23809523809523808  0.23809523809523808  0.00000000000000000   0 
 0.22619047619047616  0.22619047619047616  0.00000000000000000   0 
 0.21428571428571430  0.21428571428571430  0.00000000000000000   0 
 0.20238095238095238  0.20238095238095238  0.00000000000000000   0 
 0.19047619047619047  0.19047619047619047  0.00000000000000000   0 
 0.17857142857142855  0.17857142857142855  0.00000000000000000   0 
 0.16666666666666669  0.16666666666666669  0.00000000000000000   0 
 0.15476190476190477  0.15476190476190477  0.00000000000000000   0 
 0.14285714285714285  0.14285714285714285  0.00000000000000000   0 
 0.13095238095238093  0.13095238095238093  0.00000000000000000   0 
 0.11904761904761907  0.11904761904761907  0.00000000000000000   0 
 0.10714285714285715  0.10714285714285715  0.00000000000000000   0 
 0.09523809523809523  0.09523809523809523  0.00000000000000000   0 
 0.08333333333333331  0.08333333333333331  0.00000000000000000   0 
 0.07142857142857145  0.07142857142857145  0.00000000000000000   0 
 0.05952380952380953  0.05952380952380953  0.00000000000000000   0 
 0.04761904761904762  0.04761904761904762  0.00000000000000000   0 
 0.03571428571428570  0.03571428571428570  0.00000000000000000   0 
 0.02380952380952384  0.02380952380952384  0.00000000000000000   0 
 0.01190476190476192  0.01190476190476192  0.00000000000000000   0 
 0.00000000000000000  0.00000000000000000  0.00000000000000000   0 GAMMA
 0.00961538461538462  0.00961538461538462  0.00961538461538462   0 
 0.01923076923076923  0.01923076923076923  0.01923076923076923   0 
 0.02884615384615385  0.02884615384615385  0.02884615384615385   0 
 0.03846153846153846  0.03846153846153846  0.03846153846153846   0 
 0.04807692307692308  0.04807692307692308  0.04807692307692308   0 
 0.05769230769230770  0.05769230769230770  0.05769230769230770   0 
 0.06730769230769230  0.06730769230769230  0.06730769230769230   0 
 0.07692307692307693  0.07692307692307693  0.07692307692307693   0 
 0.08653846153846154  0.08653846153846154  0.08653846153846154   0 
 0.09615384615384616  0.09615384615384616  0.09615384615384616   0 
 0.10576923076923077  0.10576923076923077  0.10576923076923077   0 
 0.11538461538461539  0.11538461538461539  0.11538461538461539   0 
 0.12500000000000000  0.12500000000000000  0.12500000000000000   0 
 0.13461538461538461  0.13461538461538461  0.13461538461538461   0 
 0.14423076923076922  0.14423076923076922  0.14423076923076922   0 
 0.15384615384615385  0.15384615384615385  0.15384615384615385   0 
 0.16346153846153846  0.16346153846153846  0.16346153846153846   0 
 0.17307692307692307  0.17307692307692307  0.17307692307692307   0 
 0.18269230769230768  0.18269230769230768  0.18269230769230768   0 
 0.19230769230769232  0.19230769230769232  0.19230769230769232   0 
 0.20192307692307693  0.20192307692307693  0.20192307692307693   0 
 0.21153846153846154  0.21153846153846154  0.21153846153846154   0 
 0.22115384615384615  0.22115384615384615  0.22115384615384615   0 
 0.23076923076923078  0.23076923076923078  0.23076923076923078   0 
 0.24038461538461539  0.24038461538461539  0.24038461538461539   0 
 0.25000000000000000  0.25000000000000000  0.25000000000000000   0 
 0.25961538461538464  0.25961538461538464  0.25961538461538464   0 
 0.26923076923076922  0.26923076923076922  0.26923076923076922   0 
 0.27884615384615385  0.27884615384615385  0.27884615384615385   0 
 0.28846153846153844  0.28846153846153844  0.28846153846153844   0 
 0.29807692307692307  0.29807692307692307  0.29807692307692307   0 
 0.30769230769230771  0.30769230769230771  0.30769230769230771   0 
 0.31730769230769229  0.31730769230769229  0.31730769230769229   0 
 0.32692307692307693  0.32692307692307693  0.32692307692307693   0 
 0.33653846153846156  0.33653846153846156  0.33653846153846156   0 
 0.34615384615384615  0.34615384615384615  0.34615384615384615   0 
 0.35576923076923078  0.35576923076923078  0.35576923076923078   0 
 0.36538461538461536  0.36538461538461536  0.36538461538461536   0 
 0.37500000000000000  0.37500000000000000  0.37500000000000000   0 
 0.38461538461538464  0.38461538461538464  0.38461538461538464   0 
 0.39423076923076922  0.39423076923076922  0.39423076923076922   0 
 0.40384615384615385  0.40384615384615385  0.40384615384615385   0 
 0.41346153846153844  0.41346153846153844  0.41346153846153844   0 
 0.42307692307692307  0.42307692307692307  0.42307692307692307   0 
 0.43269230769230771  0.43269230769230771  0.43269230769230771   0 
 0.44230769230769229  0.44230769230769229  0.44230769230769229   0 
 0.45192307692307693  0.45192307692307693  0.45192307692307693   0 
 0.46153846153846156  0.46153846153846156  0.46153846153846156   0 
 0.47115384615384615  0.47115384615384615  0.47115384615384615   0 
 0.48076923076923078  0.48076923076923078  0.48076923076923078   0 
 0.49038461538461536  0.49038461538461536  0.49038461538461536   0 
 0.50000000000000000  0.50000000000000000  0.50000000000000000   0 R
 0.48809523809523808  0.50000000000000000  0.48809523809523808   0 
 0.47619047619047616  0.50000000000000000  0.47619047619047616   0 
 0.46428571428571430  0.50000000000000000  0.46428571428571430   0 
 0.45238095238095238  0.50000000000000000  0.45238095238095238   0 
 0.44047619047619047  0.50000000000000000  0.44047619047619047   0 
 0.42857142857142860  0.50000000000000000  0.42857142857142860   0 
 0.41666666666666669  0.50000000000000000  0.41666666666666669   0 
 0.40476190476190477  0.50000000000000000  0.40476190476190477   0 
 0.39285714285714285  0.50000000000000000  0.39285714285714285   0 
 0.38095238095238093  0.50000000000000000  0.38095238095238093   0 
 0.36904761904761907  0.50000000000000000  0.36904761904761907   0 
 0.35714285714285715  0.50000000000000000  0.35714285714285715   0 
 0.34523809523809523  0.50000000000000000  0.34523809523809523   0 
 0.33333333333333337  0.50000000000000000  0.33333333333333337   0 
 0.32142857142857140  0.50000000000000000  0.32142857142857140   0 
 0.30952380952380953  0.50000000000000000  0.30952380952380953   0 
 0.29761904761904762  0.50000000000000000  0.29761904761904762   0 
 0.28571428571428570  0.50000000000000000  0.28571428571428570   0 
 0.27380952380952384  0.50000000000000000  0.27380952380952384   0 
 0.26190476190476192  0.50000000000000000  0.26190476190476192   0 
 0.25000000000000000  0.50000000000000000  0.25000000000000000   0 
 0.23809523809523808  0.50000000000000000  0.23809523809523808   0 
 0.22619047619047616  0.50000000000000000  0.22619047619047616   0 
 0.21428571428571430  0.50000000000000000  0.21428571428571430   0 
 0.20238095238095238  0.50000000000000000  0.20238095238095238   0 
 0.19047619047619047  0.50000000000000000  0.19047619047619047   0 
 0.17857142857142855  0.50000000000000000  0.17857142857142855   0 
 0.16666666666666669  0.50000000000000000  0.16666666666666669   0 
 0.15476190476190477  0.50000000000000000  0.15476190476190477   0 
 0.14285714285714285  0.50000000000000000  0.14285714285714285   0 
 0.13095238095238093  0.50000000000000000  0.13095238095238093   0 
 0.11904761904761907  0.50000000000000000  0.11904761904761907   0 
 0.10714285714285715  0.50000000000000000  0.10714285714285715   0 
 0.09523809523809523  0.50000000000000000  0.09523809523809523   0 
 0.08333333333333331  0.50000000000000000  0.08333333333333331   0 
 0.07142857142857145  0.50000000000000000  0.07142857142857145   0 
 0.05952380952380953  0.50000000000000000  0.05952380952380953   0 
 0.04761904761904762  0.50000000000000000  0.04761904761904762   0 
 0.03571428571428570  0.50000000000000000  0.03571428571428570   0 
 0.02380952380952384  0.50000000000000000  0.02380952380952384   0 
 0.01190476190476192  0.50000000000000000  0.01190476190476192   0 
 0.00000000000000000  0.50000000000000000  0.00000000000000000   0 X
 0.50000000000000000  0.50000000000000000  0.50000000000000000   0 R
 0.50000000000000000  0.50000000000000000  0.48275862068965519   0 
 0.50000000000000000  0.50000000000000000  0.46551724137931033   0 
 0.50000000000000000  0.50000000000000000  0.44827586206896552   0 
 0.50000000000000000  0.50000000000000000  0.43103448275862066   0 
 0.50000000000000000  0.50000000000000000  0.41379310344827586   0 
 0.50000000000000000  0.50000000000000000  0.39655172413793105   0 
 0.50000000000000000  0.50000000000000000  0.37931034482758619   0 
 0.50000000000000000  0.50000000000000000  0.36206896551724138   0 
 0.50000000000000000  0.50000000000000000  0.34482758620689657   0 
 0.50000000000000000  0.50000000000000000  0.32758620689655171   0 
 0.50000000000000000  0.50000000000000000  0.31034482758620691   0 
 0.50000000000000000  0.50000000000000000  0.29310344827586210   0 
 0.50000000000000000  0.50000000000000000  0.27586206896551724   0 
 0.50000000000000000  0.50000000000000000  0.25862068965517238   0 
 0.50000000000000000  0.50000000000000000  0.24137931034482757   0 
 0.50000000000000000  0.50000000000000000  0.22413793103448276   0 
 0.50000000000000000  0.50000000000000000  0.20689655172413796   0 
 0.50000000000000000  0.50000000000000000  0.18965517241379309   0 
 0.50000000000000000  0.50000000000000000  0.17241379310344829   0 
 0.50000000000000000  0.50000000000000000  0.15517241379310343   0 
 0.50000000000000000  0.50000000000000000  0.13793103448275862   0 
 0.50000000000000000  0.50000000000000000  0.12068965517241381   0 
 0.50000000000000000  0.50000000000000000  0.10344827586206895   0 
 0.50000000000000000  0.50000000000000000  0.08620689655172414   0 
 0.50000000000000000  0.50000000000000000  0.06896551724137934   0 
 0.50000000000000000  0.50000000000000000  0.05172413793103448   0 
 0.50000000000000000  0.50000000000000000  0.03448275862068967   0 
 0.50000000000000000  0.50000000000000000  0.01724137931034481   0 
 0.50000000000000000  0.50000000000000000  0.00000000000000000   0 M
