Cs1 Cl1
1.0
   4.0754486391    0.0000000000    0.0000000000
   0.0000000000    4.0754486391    0.0000000000
   0.0000000000    0.0000000000    4.0754486391
Cs Cl
1 1
direct
   0.0000000000    0.0000000000    0.0000000000 Cs
   0.5000000000    0.5000000000    0.5000000000 Cl
