Num irrep kpoints: 5
0
Gamma
2 4 2
0.0 0.0 0.5
