Zn4 S4
1.0
   7.5631677474    0.0000000000    0.0000000000
  -1.8907919369    3.2749477012    0.0000000000
   0.0000000000    0.0000000000    6.2047662326
Zn S
4 4
direct
   0.3333333333    0.3333333333    0.5004008683 Zn
   0.8333333333    0.3333333333    0.5004008683 Zn
   0.1666666667    0.6666666667    0.0004008683 Zn
   0.6666666667    0.6666666667    0.0004008683 Zn
   0.3333333333    0.3333333333    0.8745991317 S
   0.8333333333    0.3333333333    0.8745991317 S
   0.1666666667    0.6666666667    0.3745991317 S
   0.6666666667    0.6666666667    0.3745991317 S
