Nd1 Zn95 O96
1.0
  12.9974900980    0.0000000000    0.0000000000
  -6.4987450490   11.2561566103    0.0000000000
   0.0000000000    0.0000000000   15.6316036913
Zn O Nd
95 96 1
direct
   0.0833333333    0.1666666667    0.3334807272 Zn
   0.0833333333    0.1666666667    0.6668140605 Zn
   0.0833333333    0.4166666667    0.0001473939 Zn
   0.0833333333    0.4166666667    0.3334807272 Zn
   0.0833333333    0.4166666667    0.6668140605 Zn
   0.0833333333    0.6666666667    0.0001473939 Zn
   0.0833333333    0.6666666667    0.3334807272 Zn
   0.0833333333    0.6666666667    0.6668140605 Zn
   0.0833333333    0.9166666667    0.0001473939 Zn
   0.0833333333    0.9166666667    0.3334807272 Zn
   0.0833333333    0.9166666667    0.6668140605 Zn
   0.3333333333    0.1666666667    0.0001473939 Zn
   0.3333333333    0.1666666667    0.3334807272 Zn
   0.3333333333    0.1666666667    0.6668140605 Zn
   0.3333333333    0.4166666667    0.0001473939 Zn
   0.3333333333    0.4166666667    0.3334807272 Zn
   0.3333333333    0.4166666667    0.6668140605 Zn
   0.3333333333    0.6666666667    0.0001473939 Zn
   0.3333333333    0.6666666667    0.3334807272 Zn
   0.3333333333    0.6666666667    0.6668140605 Zn
   0.3333333333    0.9166666667    0.0001473939 Zn
   0.3333333333    0.9166666667    0.3334807272 Zn
   0.3333333333    0.9166666667    0.6668140605 Zn
   0.5833333333    0.1666666667    0.0001473939 Zn
   0.5833333333    0.1666666667    0.3334807272 Zn
   0.5833333333    0.1666666667    0.6668140605 Zn
   0.5833333333    0.4166666667    0.0001473939 Zn
   0.5833333333    0.4166666667    0.3334807272 Zn
   0.5833333333    0.4166666667    0.6668140605 Zn
   0.5833333333    0.6666666667    0.0001473939 Zn
   0.5833333333    0.6666666667    0.3334807272 Zn
   0.5833333333    0.6666666667    0.6668140605 Zn
   0.5833333333    0.9166666667    0.0001473939 Zn
   0.5833333333    0.9166666667    0.3334807272 Zn
   0.5833333333    0.9166666667    0.6668140605 Zn
   0.8333333333    0.1666666667    0.0001473939 Zn
   0.8333333333    0.1666666667    0.3334807272 Zn
   0.8333333333    0.1666666667    0.6668140605 Zn
   0.8333333333    0.4166666667    0.0001473939 Zn
   0.8333333333    0.4166666667    0.3334807272 Zn
   0.8333333333    0.4166666667    0.6668140605 Zn
   0.8333333333    0.6666666667    0.0001473939 Zn
   0.8333333333    0.6666666667    0.3334807272 Zn
   0.8333333333    0.6666666667    0.6668140605 Zn
   0.8333333333    0.9166666667    0.0001473939 Zn
   0.8333333333    0.9166666667    0.3334807272 Zn
   0.8333333333    0.9166666667    0.6668140605 Zn
   0.1666666667    0.0833333333    0.1668140605 Zn
   0.1666666667    0.0833333333    0.5001473939 Zn
   0.1666666667    0.0833333333    0.8334807272 Zn
   0.1666666667    0.3333333333    0.1668140605 Zn
   0.1666666667    0.3333333333    0.5001473939 Zn
   0.1666666667    0.3333333333    0.8334807272 Zn
   0.1666666667    0.5833333333    0.1668140605 Zn
   0.1666666667    0.5833333333    0.5001473939 Zn
   0.1666666667    0.5833333333    0.8334807272 Zn
   0.1666666667    0.8333333333    0.1668140605 Zn
   0.1666666667    0.8333333333    0.5001473939 Zn
   0.1666666667    0.8333333333    0.8334807272 Zn
   0.4166666667    0.0833333333    0.1668140605 Zn
   0.4166666667    0.0833333333    0.5001473939 Zn
   0.4166666667    0.0833333333    0.8334807272 Zn
   0.4166666667    0.3333333333    0.1668140605 Zn
   0.4166666667    0.3333333333    0.5001473939 Zn
   0.4166666667    0.3333333333    0.8334807272 Zn
   0.4166666667    0.5833333333    0.1668140605 Zn
   0.4166666667    0.5833333333    0.5001473939 Zn
   0.4166666667    0.5833333333    0.8334807272 Zn
   0.4166666667    0.8333333333    0.1668140605 Zn
   0.4166666667    0.8333333333    0.5001473939 Zn
   0.4166666667    0.8333333333    0.8334807272 Zn
   0.6666666667    0.0833333333    0.1668140605 Zn
   0.6666666667    0.0833333333    0.5001473939 Zn
   0.6666666667    0.0833333333    0.8334807272 Zn
   0.6666666667    0.3333333333    0.1668140605 Zn
   0.6666666667    0.3333333333    0.5001473939 Zn
   0.6666666667    0.3333333333    0.8334807272 Zn
   0.6666666667    0.5833333333    0.1668140605 Zn
   0.6666666667    0.5833333333    0.5001473939 Zn
   0.6666666667    0.5833333333    0.8334807272 Zn
   0.6666666667    0.8333333333    0.1668140605 Zn
   0.6666666667    0.8333333333    0.5001473939 Zn
   0.6666666667    0.8333333333    0.8334807272 Zn
   0.9166666667    0.0833333333    0.1668140605 Zn
   0.9166666667    0.0833333333    0.5001473939 Zn
   0.9166666667    0.0833333333    0.8334807272 Zn
   0.9166666667    0.3333333333    0.1668140605 Zn
   0.9166666667    0.3333333333    0.5001473939 Zn
   0.9166666667    0.3333333333    0.8334807272 Zn
   0.9166666667    0.5833333333    0.1668140605 Zn
   0.9166666667    0.5833333333    0.5001473939 Zn
   0.9166666667    0.5833333333    0.8334807272 Zn
   0.9166666667    0.8333333333    0.1668140605 Zn
   0.9166666667    0.8333333333    0.5001473939 Zn
   0.9166666667    0.8333333333    0.8334807272 Zn
   0.0868294413    0.1619358606    0.1327737997 O
   0.0833333333    0.1666666667    0.4604859395 O
   0.0833333333    0.1666666667    0.7938192728 O
   0.0833333333    0.4166666667    0.1271526061 O
   0.0833333333    0.4166666667    0.4604859395 O
   0.0833333333    0.4166666667    0.7938192728 O
   0.0833333333    0.6666666667    0.1271526061 O
   0.0833333333    0.6666666667    0.4604859395 O
   0.0833333333    0.6666666667    0.7938192728 O
   0.0833333333    0.9166666667    0.1271526061 O
   0.0833333333    0.9166666667    0.4604859395 O
   0.0833333333    0.9166666667    0.7938192728 O
   0.3333333333    0.1666666667    0.1271526061 O
   0.3333333333    0.1666666667    0.4604859395 O
   0.3333333333    0.1666666667    0.7938192728 O
   0.3333333333    0.4166666667    0.1271526061 O
   0.3333333333    0.4166666667    0.4604859395 O
   0.3333333333    0.4166666667    0.7938192728 O
   0.3333333333    0.6666666667    0.1271526061 O
   0.3333333333    0.6666666667    0.4604859395 O
   0.3333333333    0.6666666667    0.7938192728 O
   0.3333333333    0.9166666667    0.1271526061 O
   0.3333333333    0.9166666667    0.4604859395 O
   0.3333333333    0.9166666667    0.7938192728 O
   0.5833333333    0.1666666667    0.1271526061 O
   0.5833333333    0.1666666667    0.4604859395 O
   0.5833333333    0.1666666667    0.7938192728 O
   0.5833333333    0.4166666667    0.1271526061 O
   0.5833333333    0.4166666667    0.4604859395 O
   0.5833333333    0.4166666667    0.7938192728 O
   0.5833333333    0.6666666667    0.1271526061 O
   0.5833333333    0.6666666667    0.4604859395 O
   0.5833333333    0.6666666667    0.7938192728 O
   0.5833333333    0.9166666667    0.1271526061 O
   0.5833333333    0.9166666667    0.4604859395 O
   0.5833333333    0.9166666667    0.7938192728 O
   0.8333333333    0.1666666667    0.1271526061 O
   0.8333333333    0.1666666667    0.4604859395 O
   0.8333333333    0.1666666667    0.7938192728 O
   0.8333333333    0.4166666667    0.1271526061 O
   0.8333333333    0.4166666667    0.4604859395 O
   0.8333333333    0.4166666667    0.7938192728 O
   0.8333333333    0.6666666667    0.1271526061 O
   0.8333333333    0.6666666667    0.4604859395 O
   0.8333333333    0.6666666667    0.7938192728 O
   0.8333333333    0.9166666667    0.1271526061 O
   0.8333333333    0.9166666667    0.4604859395 O
   0.8333333333    0.9166666667    0.7938192728 O
   0.1666666667    0.0833333333    0.2938192728 O
   0.1666666667    0.0833333333    0.6271526061 O
   0.1658509165    0.0801916768    0.9520748531 O
   0.1666666667    0.3333333333    0.2938192728 O
   0.1666666667    0.3333333333    0.6271526061 O
   0.1783065574    0.3305977640    0.9605206877 O
   0.1666666667    0.5833333333    0.2938192728 O
   0.1666666667    0.5833333333    0.6271526061 O
   0.1666666667    0.5833333333    0.9604859395 O
   0.1666666667    0.8333333333    0.2938192728 O
   0.1666666667    0.8333333333    0.6271526061 O
   0.1666666667    0.8333333333    0.9604859395 O
   0.4166666667    0.0833333333    0.2938192728 O
   0.4166666667    0.0833333333    0.6271526061 O
   0.4166666667    0.0833333333    0.9604859395 O
   0.4166666667    0.3333333333    0.2938192728 O
   0.4166666667    0.3333333333    0.6271526061 O
   0.4166666667    0.3333333333    0.9604859395 O
   0.4166666667    0.5833333333    0.2938192728 O
   0.4166666667    0.5833333333    0.6271526061 O
   0.4166666667    0.5833333333    0.9604859395 O
   0.4166666667    0.8333333333    0.2938192728 O
   0.4166666667    0.8333333333    0.6271526061 O
   0.4166666667    0.8333333333    0.9604859395 O
   0.6666666667    0.0833333333    0.2938192728 O
   0.6666666667    0.0833333333    0.6271526061 O
   0.6666666667    0.0833333333    0.9604859395 O
   0.6666666667    0.3333333333    0.2938192728 O
   0.6666666667    0.3333333333    0.6271526061 O
   0.6666666667    0.3333333333    0.9604859395 O
   0.6666666667    0.5833333333    0.2938192728 O
   0.6666666667    0.5833333333    0.6271526061 O
   0.6666666667    0.5833333333    0.9604859395 O
   0.6666666667    0.8333333333    0.2938192728 O
   0.6666666667    0.8333333333    0.6271526061 O
   0.6666666667    0.8333333333    0.9604859395 O
   0.9166666667    0.0833333333    0.2938192728 O
   0.9166666667    0.0833333333    0.6271526061 O
   0.9109453845    0.0764443084    0.9637608437 O
   0.9166666667    0.3333333333    0.2938192728 O
   0.9166666667    0.3333333333    0.6271526061 O
   0.9166666667    0.3333333333    0.9604859395 O
   0.9166666667    0.5833333333    0.2938192728 O
   0.9166666667    0.5833333333    0.6271526061 O
   0.9166666667    0.5833333333    0.9604859395 O
   0.9166666667    0.8333333333    0.2938192728 O
   0.9166666667    0.8333333333    0.6271526061 O
   0.9166666667    0.8333333333    0.9604859395 O
   0.0833333333    0.1666666667    0.0001473939 Nd
