Zn2 S2                                  
    1.000000000000000     
     3.7815838736999998    0.0000000000000000    0.0000000000000000
    -1.8907919368999999    3.2749477011999999    0.0000000000000000
     0.0000000000000000    0.0000000000000000    6.2047662325999999
   Zn   S 
     2     2
Direct
     0.6666666667000030    0.3333333332999970    0.5004008682999981
     0.3333333332999970    0.6666666667000030    0.0004008682999981
     0.6666666667000030    0.3333333332999970    0.8745991317000019
     0.3333333332999970    0.6666666667000030    0.3745991317000019
 
  0.00000000E+00  0.00000000E+00  0.00000000E+00
  0.00000000E+00  0.00000000E+00  0.00000000E+00
  0.00000000E+00  0.00000000E+00  0.00000000E+00
  0.00000000E+00  0.00000000E+00  0.00000000E+00
