Zn2 S2
1.0
   3.7815838737    0.0000000000    0.0000000000
  -1.8907919369    3.2749477012    0.0000000000
   0.0000000000    0.0000000000    6.2047662326
Zn S
2 2
direct
   0.6666666667    0.3333333333    0.5004008683 Zn
   0.3333333333    0.6666666667    0.0004008683 Zn
   0.6666666667    0.3333333333    0.8745991317 S
   0.3333333333    0.6666666667    0.3745991317 S
