Nd1 Zn1                                 
   1.00000000000000     
     3.6506551374589771   -0.0000000000000000    0.0000000000000000
    -0.0000000000000000    3.6506551374589771   -0.0000000000000000
     0.0000000000000000   -0.0000000000000000    3.6506551374589771
   Nd   Zn
     1     1
Direct
     0.0000000000000000    0.0000000000000000    0.0000000000000000
     0.5000000000000000    0.5000000000000000    0.5000000000000000
 
  0.00000000E+00  0.00000000E+00  0.00000000E+00
  0.00000000E+00  0.00000000E+00  0.00000000E+00
