Zn2                                     
    1.000000000000000     
     2.6385479015531912   -0.0000000000005182   -0.0000000000000000
    -1.3192739508275071    2.2850495118899334    0.0000000000000000
     0.0000000000000000    0.0000000000000000    4.6430707255318016
   Zn
     2
Direct
     0.3333333332999970    0.6666666667000030    0.2500000000000000
     0.6666666667000030    0.3333333332999970    0.7500000000000000
 
  0.00000000E+00  0.00000000E+00  0.00000000E+00
  0.00000000E+00  0.00000000E+00  0.00000000E+00
