Zn2
1.0
   2.6143598013    0.0000000000    0.0000000000
  -1.3071799007    2.2641020026    0.0000000000
   0.0000000000    0.0000000000    4.8731610200
Zn
2
direct
   0.3333333333    0.6666666667    0.2500000000 Zn
   0.6666666667    0.3333333333    0.7500000000 Zn
