Na1 Zn54 O54                            
    1.000000000000000     
     9.7481175735000001    0.0000000000000000    0.0000000000000000
    -4.8740587867000000    8.4421174577000002    0.0000000000000000
     0.0000000000000000    0.0000000000000000   15.6316036913000005
   Zn   O    Na
    54    54     1
Direct
     0.1107350363183931    0.2215223961340539    0.0005455973367494
     0.1150336982958147    0.2298813536378025    0.3383058406756826
     0.1111142222988903    0.2221317177755653    0.6678838160557220
     0.1110966009985006    0.5553758818349241    0.9995603848160795
     0.1106076863263954    0.5545450433858349    0.3341748725149897
     0.1111410236760932    0.5554840709689930    0.6676470135405289
     0.1108441890200429    0.8886325522768429    0.0005266023535384
     0.1146558822427576    0.8833436673973318    0.3382954591254522
     0.1110618961094795    0.8886541614193890    0.6679421540856132
     0.4478114252270746    0.2238701205757111    0.9948882558573897
     0.4436915066469636    0.2212677028131509    0.3344175936807252
     0.4444350082861663    0.2221842957057789    0.6672572045674240
     0.4442326712305429    0.5553911572176289    0.9995343294882330
     0.4437426956670210    0.5546342971573175    0.3340626033511492
     0.4444006626584858    0.5555603170644342    0.6676056635422974
     0.4443237735561811    0.8888088183014567    0.9995946743682933
     0.4437567719683382    0.8883427939643380    0.3341337025262152
     0.4443450608282886    0.8887988977591140    0.6676070503022502
     0.7759613014961778    0.2238972140781773    0.9949098997789531
     0.7774967205974981    0.2214406529621096    0.3343805572387603
     0.7778183514205543    0.2222932142708963    0.6671782139958056
     0.7759449653353423    0.5519188854244522    0.9949102094905024
     0.7773270649520897    0.5549996781653713    0.3344526007205413
     0.7776673020275984    0.5554186828712646    0.6672314119302876
     0.7777749493893107    0.8886972037024643    0.0004888708770944
     0.7679354647478597    0.8835920043175219    0.3382190075698538
     0.7775902497089625    0.8888385366611441    0.6679169187244702
     0.2464166889868301    0.1220924485743721    0.1589356949239752
     0.2227478806358434    0.1108904059294373    0.5021951307206522
     0.2216712230453749    0.1107479275284099    0.8339341148940688
     0.2211663705324458    0.4422992670401622    0.1664888659255594
     0.2229398841586151    0.4455704937661871    0.5020442319323265
     0.2219225675916154    0.4438829660256196    0.8339075389467007
     0.2212619599961937    0.7770027729513568    0.1666523366284672
     0.2228181722846026    0.7766537175060267    0.5020538547968108
     0.2220557455411659    0.7778256528189580    0.8338641789954276
     0.5543713003838456    0.1087983825822345    0.1674663599738911
     0.5555334858473218    0.1109441404898433    0.5008209902386900
     0.5550303043221628    0.1100338168886787    0.8314181264442222
     0.5539802500781518    0.4444283718381175    0.1674908484830442
     0.5553885605563388    0.4442710679931224    0.5007824570214838
     0.5550054600920157    0.4449866615249676    0.8313593751409073
     0.5554483518126372    0.7772530010264457    0.1664451715036617
     0.5537136794285524    0.7768444042399718    0.5020041002624288
     0.5558041734963345    0.7778747871032684    0.8339836109184369
     0.8758797140424376    0.1224333496792260    0.1589186240489970
     0.8884233335722516    0.1111609887059860    0.5020531598427723
     0.8890316186701811    0.1108077909030325    0.8339910627689753
     0.8902401154891250    0.4446015724496910    0.1674631341618059
     0.8888393485783873    0.4443822943601633    0.5008316419616367
     0.8899989838218150    0.4449763052696849    0.8314076427494808
     0.8756469017844796    0.7519274745152738    0.1588828247473765
     0.8881724475725525    0.7769001716755319    0.5021711523932029
     0.8891085024412499    0.7782719977749549    0.8339342976477762
     0.1074463956127813    0.2147989574034924    0.1301977119259987
     0.1111972894814158    0.2221326515683943    0.4625551216090846
     0.1108344998518947    0.2217935898143773    0.7949185408376378
     0.1106538878716729    0.5545304145883591    0.1271917850164960
     0.1111049268556040    0.5551968323522410    0.4608035466783971
     0.1124199332424142    0.5560730279423520    0.7943555307499152
     0.1072678861326433    0.8906536559395042    0.1301634236319496
     0.1109473734099898    0.8882495007409273    0.4625149849759604
     0.1109706723978847    0.8889303931368876    0.7949428966644982
     0.4569403459302784    0.2279418633020343    0.1222713506698645
     0.4437896164865732    0.2216692488667112    0.4607374567748128
     0.4435497687044698    0.2217679079283172    0.7942459004803520
     0.4438700312303714    0.5547332079165068    0.1271854615369571
     0.4442705383370650    0.5554309254703438    0.4607007872704505
     0.4436947102998543    0.5561671576770325    0.7943575974633450
     0.4438821657113972    0.8883341243855599    0.1272073504247388
     0.4441972206196202    0.8886645652414652    0.4607189470801797
     0.4438401667216973    0.8875856219299694    0.7943428387446649
     0.7710130274084097    0.2280095122531303    0.1222939198266639
     0.7780009453912207    0.2218448820306904    0.4606805468471855
     0.7782009730380176    0.2217655719347048    0.7941902334724649
     0.7705754409368543    0.5415102652789664    0.1222518863861216
     0.7778436108602359    0.5558098690099738    0.4607453208695811
     0.7781712857650488    0.5563649679090706    0.7942058864135337
     0.7832007946727578    0.8910469630947627    0.1301548202903468
     0.7771030534745551    0.8884860012001815    0.4625141988232011
     0.7778728006833711    0.8889883024617773    0.7949265869742930
     0.2211422311900850    0.1098288476539545    0.2917961298897597
     0.2220521371892508    0.1108403772603740    0.6284164418106679
     0.2222517182027489    0.1108085312229788    0.9620461427399323
     0.2223449258960073    0.4448873420716224    0.2935471525331399
     0.2221825886111966    0.4442998295814126    0.6282955870866690
     0.2214521533591546    0.4429867680373122    0.9615876962504766
     0.2223834288569735    0.7762162061272398    0.2936140896343383
     0.2221306252752984    0.7776398335789296    0.6282642796346195
     0.2216844589336429    0.7779998701922857    0.9615490282609314
     0.5552418427563769    0.1105888062960152    0.2936922042487120
     0.5555300538632455    0.1110517133622967    0.6277067474240117
     0.5544628177402264    0.1090472877564773    0.9582600671084858
     0.5550648377736219    0.4435671285971876    0.2937031589463919
     0.5554496017772557    0.4443685209354334    0.6277033497678923
     0.5545021004410440    0.4452606823573654    0.9582188623186437
     0.5532679717516298    0.7762578954814657    0.2934382931361830
     0.5554780345606697    0.7777162910760383    0.6282289220946486
     0.5562295525950838    0.7780517235322235    0.9616112739637434
     0.8886026725557870    0.1099904248658117    0.2919151977513967
     0.8889469965990515    0.1110029736930497    0.6283118354985346
     0.8885727113861139    0.1109069757359623    0.9620754268650138
     0.8883068775593203    0.4436762971177033    0.2936982884428643
     0.8889728231874985    0.4445134752962527    0.6276999097498620
     0.8907780626532945    0.4453291968857319    0.9582647103833568
     0.8883495471559122    0.7772494421729171    0.2919403790228121
     0.8888711921758206    0.7778591403197058    0.6283941051541918
     0.8886911026418414    0.7773932848466867    0.9620363396948347
     0.9991739414904139    0.9986774050640530    0.2257170932618444
 
  0.00000000E+00  0.00000000E+00  0.00000000E+00
  0.00000000E+00  0.00000000E+00  0.00000000E+00
  0.00000000E+00  0.00000000E+00  0.00000000E+00
  0.00000000E+00  0.00000000E+00  0.00000000E+00
  0.00000000E+00  0.00000000E+00  0.00000000E+00
  0.00000000E+00  0.00000000E+00  0.00000000E+00
  0.00000000E+00  0.00000000E+00  0.00000000E+00
  0.00000000E+00  0.00000000E+00  0.00000000E+00
  0.00000000E+00  0.00000000E+00  0.00000000E+00
  0.00000000E+00  0.00000000E+00  0.00000000E+00
  0.00000000E+00  0.00000000E+00  0.00000000E+00
  0.00000000E+00  0.00000000E+00  0.00000000E+00
  0.00000000E+00  0.00000000E+00  0.00000000E+00
  0.00000000E+00  0.00000000E+00  0.00000000E+00
  0.00000000E+00  0.00000000E+00  0.00000000E+00
  0.00000000E+00  0.00000000E+00  0.00000000E+00
  0.00000000E+00  0.00000000E+00  0.00000000E+00
  0.00000000E+00  0.00000000E+00  0.00000000E+00
  0.00000000E+00  0.00000000E+00  0.00000000E+00
  0.00000000E+00  0.00000000E+00  0.00000000E+00
  0.00000000E+00  0.00000000E+00  0.00000000E+00
  0.00000000E+00  0.00000000E+00  0.00000000E+00
  0.00000000E+00  0.00000000E+00  0.00000000E+00
  0.00000000E+00  0.00000000E+00  0.00000000E+00
  0.00000000E+00  0.00000000E+00  0.00000000E+00
  0.00000000E+00  0.00000000E+00  0.00000000E+00
  0.00000000E+00  0.00000000E+00  0.00000000E+00
  0.00000000E+00  0.00000000E+00  0.00000000E+00
  0.00000000E+00  0.00000000E+00  0.00000000E+00
  0.00000000E+00  0.00000000E+00  0.00000000E+00
  0.00000000E+00  0.00000000E+00  0.00000000E+00
  0.00000000E+00  0.00000000E+00  0.00000000E+00
  0.00000000E+00  0.00000000E+00  0.00000000E+00
  0.00000000E+00  0.00000000E+00  0.00000000E+00
  0.00000000E+00  0.00000000E+00  0.00000000E+00
  0.00000000E+00  0.00000000E+00  0.00000000E+00
  0.00000000E+00  0.00000000E+00  0.00000000E+00
  0.00000000E+00  0.00000000E+00  0.00000000E+00
  0.00000000E+00  0.00000000E+00  0.00000000E+00
  0.00000000E+00  0.00000000E+00  0.00000000E+00
  0.00000000E+00  0.00000000E+00  0.00000000E+00
  0.00000000E+00  0.00000000E+00  0.00000000E+00
  0.00000000E+00  0.00000000E+00  0.00000000E+00
  0.00000000E+00  0.00000000E+00  0.00000000E+00
  0.00000000E+00  0.00000000E+00  0.00000000E+00
  0.00000000E+00  0.00000000E+00  0.00000000E+00
  0.00000000E+00  0.00000000E+00  0.00000000E+00
  0.00000000E+00  0.00000000E+00  0.00000000E+00
  0.00000000E+00  0.00000000E+00  0.00000000E+00
  0.00000000E+00  0.00000000E+00  0.00000000E+00
  0.00000000E+00  0.00000000E+00  0.00000000E+00
  0.00000000E+00  0.00000000E+00  0.00000000E+00
  0.00000000E+00  0.00000000E+00  0.00000000E+00
  0.00000000E+00  0.00000000E+00  0.00000000E+00
  0.00000000E+00  0.00000000E+00  0.00000000E+00
  0.00000000E+00  0.00000000E+00  0.00000000E+00
  0.00000000E+00  0.00000000E+00  0.00000000E+00
  0.00000000E+00  0.00000000E+00  0.00000000E+00
  0.00000000E+00  0.00000000E+00  0.00000000E+00
  0.00000000E+00  0.00000000E+00  0.00000000E+00
  0.00000000E+00  0.00000000E+00  0.00000000E+00
  0.00000000E+00  0.00000000E+00  0.00000000E+00
  0.00000000E+00  0.00000000E+00  0.00000000E+00
  0.00000000E+00  0.00000000E+00  0.00000000E+00
  0.00000000E+00  0.00000000E+00  0.00000000E+00
  0.00000000E+00  0.00000000E+00  0.00000000E+00
  0.00000000E+00  0.00000000E+00  0.00000000E+00
  0.00000000E+00  0.00000000E+00  0.00000000E+00
  0.00000000E+00  0.00000000E+00  0.00000000E+00
  0.00000000E+00  0.00000000E+00  0.00000000E+00
  0.00000000E+00  0.00000000E+00  0.00000000E+00
  0.00000000E+00  0.00000000E+00  0.00000000E+00
  0.00000000E+00  0.00000000E+00  0.00000000E+00
  0.00000000E+00  0.00000000E+00  0.00000000E+00
  0.00000000E+00  0.00000000E+00  0.00000000E+00
  0.00000000E+00  0.00000000E+00  0.00000000E+00
  0.00000000E+00  0.00000000E+00  0.00000000E+00
  0.00000000E+00  0.00000000E+00  0.00000000E+00
  0.00000000E+00  0.00000000E+00  0.00000000E+00
  0.00000000E+00  0.00000000E+00  0.00000000E+00
  0.00000000E+00  0.00000000E+00  0.00000000E+00
  0.00000000E+00  0.00000000E+00  0.00000000E+00
  0.00000000E+00  0.00000000E+00  0.00000000E+00
  0.00000000E+00  0.00000000E+00  0.00000000E+00
  0.00000000E+00  0.00000000E+00  0.00000000E+00
  0.00000000E+00  0.00000000E+00  0.00000000E+00
  0.00000000E+00  0.00000000E+00  0.00000000E+00
  0.00000000E+00  0.00000000E+00  0.00000000E+00
  0.00000000E+00  0.00000000E+00  0.00000000E+00
  0.00000000E+00  0.00000000E+00  0.00000000E+00
  0.00000000E+00  0.00000000E+00  0.00000000E+00
  0.00000000E+00  0.00000000E+00  0.00000000E+00
  0.00000000E+00  0.00000000E+00  0.00000000E+00
  0.00000000E+00  0.00000000E+00  0.00000000E+00
  0.00000000E+00  0.00000000E+00  0.00000000E+00
  0.00000000E+00  0.00000000E+00  0.00000000E+00
  0.00000000E+00  0.00000000E+00  0.00000000E+00
  0.00000000E+00  0.00000000E+00  0.00000000E+00
  0.00000000E+00  0.00000000E+00  0.00000000E+00
  0.00000000E+00  0.00000000E+00  0.00000000E+00
  0.00000000E+00  0.00000000E+00  0.00000000E+00
  0.00000000E+00  0.00000000E+00  0.00000000E+00
  0.00000000E+00  0.00000000E+00  0.00000000E+00
  0.00000000E+00  0.00000000E+00  0.00000000E+00
  0.00000000E+00  0.00000000E+00  0.00000000E+00
  0.00000000E+00  0.00000000E+00  0.00000000E+00
  0.00000000E+00  0.00000000E+00  0.00000000E+00
  0.00000000E+00  0.00000000E+00  0.00000000E+00
  0.00000000E+00  0.00000000E+00  0.00000000E+00
