Na1 Zn54 O54
1.0
   9.7481175735    0.0000000000    0.0000000000
  -4.8740587867    8.4421174577    0.0000000000
   0.0000000000    0.0000000000   15.6316036913
Zn O Na
54 54 1
direct
   0.1111111111    0.2222222222    0.0001473939 Zn
   0.1124441782    0.2222258708    0.3342487897 Zn
   0.1111111111    0.2222222222    0.6668140605 Zn
   0.1111111111    0.5555555556    0.0001473939 Zn
   0.1111111111    0.5555555556    0.3334807272 Zn
   0.1111111111    0.5555555556    0.6668140605 Zn
   0.1111111111    0.8888888889    0.0001473939 Zn
   0.1146402114    0.8865949122    0.3424258628 Zn
   0.1111111111    0.8888888889    0.6668140605 Zn
   0.4444444444    0.2222222222    0.0001473939 Zn
   0.4444444444    0.2222222222    0.3334807272 Zn
   0.4444444444    0.2222222222    0.6668140605 Zn
   0.4444444444    0.5555555556    0.0001473939 Zn
   0.4444444444    0.5555555556    0.3334807272 Zn
   0.4444444444    0.5555555556    0.6668140605 Zn
   0.4444444444    0.8888888889    0.0001473939 Zn
   0.4444444444    0.8888888889    0.3334807272 Zn
   0.4444444444    0.8888888889    0.6668140605 Zn
   0.7777777778    0.2222222222    0.0001473939 Zn
   0.7777777778    0.2222222222    0.3334807272 Zn
   0.7777777778    0.2222222222    0.6668140605 Zn
   0.7777777778    0.5555555556    0.0001473939 Zn
   0.7777777778    0.5555555556    0.3334807272 Zn
   0.7777777778    0.5555555556    0.6668140605 Zn
   0.7777777778    0.8888888889    0.0001473939 Zn
   0.7728829739    0.8875281508    0.3285742453 Zn
   0.7777777778    0.8888888889    0.6668140605 Zn
   0.2255666025    0.1088351059    0.1668563666 Zn
   0.2222222222    0.1111111111    0.5001473939 Zn
   0.2222222222    0.1111111111    0.8334807272 Zn
   0.2222222222    0.4444444444    0.1668140605 Zn
   0.2222222222    0.4444444444    0.5001473939 Zn
   0.2222222222    0.4444444444    0.8334807272 Zn
   0.2222222222    0.7777777778    0.1668140605 Zn
   0.2222222222    0.7777777778    0.5001473939 Zn
   0.2222222222    0.7777777778    0.8334807272 Zn
   0.5555555556    0.1111111111    0.1668140605 Zn
   0.5555555556    0.1111111111    0.5001473939 Zn
   0.5555555556    0.1111111111    0.8334807272 Zn
   0.5555555556    0.4444444444    0.1668140605 Zn
   0.5555555556    0.4444444444    0.5001473939 Zn
   0.5555555556    0.4444444444    0.8334807272 Zn
   0.5555555556    0.7777777778    0.1668140605 Zn
   0.5555555556    0.7777777778    0.5001473939 Zn
   0.5555555556    0.7777777778    0.8334807272 Zn
   0.8804448271    0.1087011162    0.1652025269 Zn
   0.8888888889    0.1111111111    0.5001473939 Zn
   0.8888888889    0.1111111111    0.8334807272 Zn
   0.8888888889    0.4444444444    0.1668140605 Zn
   0.8888888889    0.4444444444    0.5001473939 Zn
   0.8888888889    0.4444444444    0.8334807272 Zn
   0.8883534743    0.7769415364    0.1660207127 Zn
   0.8888888889    0.7777777778    0.5001473939 Zn
   0.8888888889    0.7777777778    0.8334807272 Zn
   0.0999531853    0.2070951494    0.1244720627 O
   0.1111111111    0.2222222222    0.4604859395 O
   0.1111111111    0.2222222222    0.7938192728 O
   0.1111111111    0.5555555556    0.1271526061 O
   0.1111111111    0.5555555556    0.4604859395 O
   0.1111111111    0.5555555556    0.7938192728 O
   0.1137671325    0.8902608316    0.1270139237 O
   0.1111111111    0.8888888889    0.4604859395 O
   0.1111111111    0.8888888889    0.7938192728 O
   0.4444444444    0.2222222222    0.1271526061 O
   0.4444444444    0.2222222222    0.4604859395 O
   0.4444444444    0.2222222222    0.7938192728 O
   0.4444444444    0.5555555556    0.1271526061 O
   0.4444444444    0.5555555556    0.4604859395 O
   0.4444444444    0.5555555556    0.7938192728 O
   0.4444444444    0.8888888889    0.1271526061 O
   0.4444444444    0.8888888889    0.4604859395 O
   0.4444444444    0.8888888889    0.7938192728 O
   0.7777777778    0.2222222222    0.1271526061 O
   0.7777777778    0.2222222222    0.4604859395 O
   0.7777777778    0.2222222222    0.7938192728 O
   0.7777777778    0.5555555556    0.1271526061 O
   0.7777777778    0.5555555556    0.4604859395 O
   0.7777777778    0.5555555556    0.7938192728 O
   0.7778919075    0.8886356483    0.1271677854 O
   0.7777777778    0.8888888889    0.4604859395 O
   0.7777777778    0.8888888889    0.7938192728 O
   0.2162382367    0.0911244474    0.2925322359 O
   0.2222222222    0.1111111111    0.6271526061 O
   0.2222222222    0.1111111111    0.9604859395 O
   0.2222222222    0.4444444444    0.2938192728 O
   0.2222222222    0.4444444444    0.6271526061 O
   0.2222222222    0.4444444444    0.9604859395 O
   0.2222222222    0.7777777778    0.2938192728 O
   0.2222222222    0.7777777778    0.6271526061 O
   0.2222222222    0.7777777778    0.9604859395 O
   0.5555555556    0.1111111111    0.2938192728 O
   0.5555555556    0.1111111111    0.6271526061 O
   0.5555555556    0.1111111111    0.9604859395 O
   0.5555555556    0.4444444444    0.2938192728 O
   0.5555555556    0.4444444444    0.6271526061 O
   0.5555555556    0.4444444444    0.9604859395 O
   0.5555555556    0.7777777778    0.2938192728 O
   0.5555555556    0.7777777778    0.6271526061 O
   0.5555555556    0.7777777778    0.9604859395 O
   0.8891457113    0.1143457083    0.2944805984 O
   0.8888888889    0.1111111111    0.6271526061 O
   0.8888888889    0.1111111111    0.9604859395 O
   0.8888888889    0.4444444444    0.2938192728 O
   0.8888888889    0.4444444444    0.6271526061 O
   0.8888888889    0.4444444444    0.9604859395 O
   0.8788111344    0.7715953242    0.2967404143 O
   0.8888888889    0.7777777778    0.6271526061 O
   0.8888888889    0.7777777778    0.9604859395 O
   0.0000000000    0.0000000000    0.2321428571 Na
