Cs27 Cl26                               
    1.000000000000000     
    12.2263459171999997    0.0000000000000000    0.0000000000000000
     0.0000000000000000   12.2263459171999997    0.0000000000000000
     0.0000000000000000    0.0000000000000000   12.2263459171999997
   Cs   Cl
    27    26
Direct
     0.9989132989390799    0.9993743205289302    0.9984587624632003
     0.9983600446833569    0.9993892519574674    0.3343302564668140
     0.0000802112436766    0.0006388825269472    0.6663397666213625
     0.9981740211742279    0.3358527912158652    0.9967741487670083
     0.9990984604953776    0.3373254703092088    0.3336518529177306
     0.9999469109992459    0.3335641643785466    0.6656099331403422
     0.0000582656804464    0.6674626452174868    0.0000177888511357
     0.9999601971076945    0.6686577223426063    0.3333098068359125
     0.9997009335142906    0.6669787724864020    0.6669155695046555
     0.3344687036481752    0.9998312349511010    0.9990792140409279
     0.3363624577318701    0.9984022134754670    0.3358940660553199
     0.3334178112177620    0.0001670806771989    0.6675686102354762
     0.3349128827597576    0.3356914031557642    0.9971700011232206
     0.3339309497803396    0.3347150457072762    0.3337244485953191
     0.3333485408078632    0.3335680584093260    0.6647095749278227
     0.3329873879402183    0.6679195090976137    0.0001449280971860
     0.3335306968168882    0.6668523369056213    0.3332014985005491
     0.3334508733291879    0.6671471502316100    0.6669258562628585
     0.6668924980941680    0.0004957939811244    0.9998710976300219
     0.6676173910051177    0.0000937369889766    0.3333384307674358
     0.6668032878210032    0.0002881521958517    0.6662828423138355
     0.6668209229506438    0.3334032225233512    0.9999337067081445
     0.6664186521225032    0.3335499864802891    0.3328648724456484
     0.6669165999052482    0.3335413950539066    0.6666571218442982
     0.6665491816480137    0.6665881926987066    0.9997416397855062
     0.6664973921096132    0.6666841722686156    0.3332591733065420
     0.6664065459385270    0.6669787053461416    0.6663909363569227
     0.1671100093094774    0.1669295020770589    0.4975125130032590
     0.1661205022748233    0.1680256169467140    0.8329320502901161
     0.1659046113135762    0.5008347967620566    0.1652718815716529
     0.1663730140130921    0.5007760161016687    0.4985509099106135
     0.1664979716925717    0.5012042256372812    0.8320637422995704
     0.1670087723281214    0.8361592761160399    0.1673492291315289
     0.1672592780071590    0.8340726333580264    0.5006465392591030
     0.1665448233847975    0.8346100011451443    0.8338410269468509
     0.4984728390546557    0.1666097615282011    0.1665060403764300
     0.5006299332888078    0.1663699945332348    0.4998449633794221
     0.4996095393991229    0.1674084503897299    0.8327897504072348
     0.4992959278251500    0.5001916299266235    0.1660382907066764
     0.5000126071076688    0.4997838711052286    0.4992597090858830
     0.4998602013344178    0.5011972361444001    0.8320584575514519
     0.5003754317138223    0.8334697398712451    0.1674557908320882
     0.5009935783523137    0.8324758465250428    0.5009255964283634
     0.5001382363563470    0.8338010830335552    0.8335223581260678
     0.8345046599612881    0.1680826325160855    0.1660168732410185
     0.8336743990116925    0.1676417622603848    0.4992865277225768
     0.8329000367603642    0.1669559704614592    0.8324472655519721
     0.8328354097278157    0.5012520649267675    0.1661114965789449
     0.8327959263774520    0.5012815048703775    0.4996025275007280
     0.8324209386821801    0.5013007098996458    0.8321859133121169
     0.8335663214313512    0.8347677470406656    0.1665600501833532
     0.8338252146975653    0.8341080773131845    0.5000239972808785
     0.8328895395300615    0.8339511879987769    0.8329052059569020
 
  0.00000000E+00  0.00000000E+00  0.00000000E+00
  0.00000000E+00  0.00000000E+00  0.00000000E+00
  0.00000000E+00  0.00000000E+00  0.00000000E+00
  0.00000000E+00  0.00000000E+00  0.00000000E+00
  0.00000000E+00  0.00000000E+00  0.00000000E+00
  0.00000000E+00  0.00000000E+00  0.00000000E+00
  0.00000000E+00  0.00000000E+00  0.00000000E+00
  0.00000000E+00  0.00000000E+00  0.00000000E+00
  0.00000000E+00  0.00000000E+00  0.00000000E+00
  0.00000000E+00  0.00000000E+00  0.00000000E+00
  0.00000000E+00  0.00000000E+00  0.00000000E+00
  0.00000000E+00  0.00000000E+00  0.00000000E+00
  0.00000000E+00  0.00000000E+00  0.00000000E+00
  0.00000000E+00  0.00000000E+00  0.00000000E+00
  0.00000000E+00  0.00000000E+00  0.00000000E+00
  0.00000000E+00  0.00000000E+00  0.00000000E+00
  0.00000000E+00  0.00000000E+00  0.00000000E+00
  0.00000000E+00  0.00000000E+00  0.00000000E+00
  0.00000000E+00  0.00000000E+00  0.00000000E+00
  0.00000000E+00  0.00000000E+00  0.00000000E+00
  0.00000000E+00  0.00000000E+00  0.00000000E+00
  0.00000000E+00  0.00000000E+00  0.00000000E+00
  0.00000000E+00  0.00000000E+00  0.00000000E+00
  0.00000000E+00  0.00000000E+00  0.00000000E+00
  0.00000000E+00  0.00000000E+00  0.00000000E+00
  0.00000000E+00  0.00000000E+00  0.00000000E+00
  0.00000000E+00  0.00000000E+00  0.00000000E+00
  0.00000000E+00  0.00000000E+00  0.00000000E+00
  0.00000000E+00  0.00000000E+00  0.00000000E+00
  0.00000000E+00  0.00000000E+00  0.00000000E+00
  0.00000000E+00  0.00000000E+00  0.00000000E+00
  0.00000000E+00  0.00000000E+00  0.00000000E+00
  0.00000000E+00  0.00000000E+00  0.00000000E+00
  0.00000000E+00  0.00000000E+00  0.00000000E+00
  0.00000000E+00  0.00000000E+00  0.00000000E+00
  0.00000000E+00  0.00000000E+00  0.00000000E+00
  0.00000000E+00  0.00000000E+00  0.00000000E+00
  0.00000000E+00  0.00000000E+00  0.00000000E+00
  0.00000000E+00  0.00000000E+00  0.00000000E+00
  0.00000000E+00  0.00000000E+00  0.00000000E+00
  0.00000000E+00  0.00000000E+00  0.00000000E+00
  0.00000000E+00  0.00000000E+00  0.00000000E+00
  0.00000000E+00  0.00000000E+00  0.00000000E+00
  0.00000000E+00  0.00000000E+00  0.00000000E+00
  0.00000000E+00  0.00000000E+00  0.00000000E+00
  0.00000000E+00  0.00000000E+00  0.00000000E+00
  0.00000000E+00  0.00000000E+00  0.00000000E+00
  0.00000000E+00  0.00000000E+00  0.00000000E+00
  0.00000000E+00  0.00000000E+00  0.00000000E+00
  0.00000000E+00  0.00000000E+00  0.00000000E+00
  0.00000000E+00  0.00000000E+00  0.00000000E+00
  0.00000000E+00  0.00000000E+00  0.00000000E+00
  0.00000000E+00  0.00000000E+00  0.00000000E+00
