Nd16 O24                                
   1.00000000000000     
    -5.4583577109403745    5.4583577109403745    5.4583577109403745
     5.4583577109403745   -5.4583577109403745    5.4583577109403745
     5.4583577109403745    5.4583577109403745   -5.4583577109403745
   Nd   O 
    16    24
Direct
     0.7193988785784556    0.7500000000000000    0.4693988785784557
     0.2500000000000000    0.0306011214215443    0.7806011214215444
     0.4693988785784557    0.7193988785784556    0.7500000000000000
     0.7500000000000000    0.4693988785784557    0.7193988785784556
     0.0306011214215443    0.7806011214215444    0.2500000000000000
     0.7806011214215444    0.2500000000000000    0.0306011214215443
     0.2806011214215443    0.2500000000000000    0.5306011214215444
     0.7500000000000000    0.9693988785784556    0.2193988785784557
     0.5306011214215444    0.2806011214215443    0.2500000000000000
     0.2500000000000000    0.5306011214215444    0.2806011214215443
     0.9693988785784556    0.2193988785784557    0.7500000000000000
     0.2193988785784557    0.7500000000000000    0.9693988785784556
     0.5000000000000000    0.5000000000000000    1.0000000000000000
     0.0000000000000000    0.0000000000000000    1.0000000000000000
     0.0000000000000000    0.5000000000000000    0.5000000000000000
     0.5000000000000000    0.0000000000000000    0.5000000000000000
     0.2308498129890350    0.2711125877932856    0.7585318033031855
     0.0125807844901074    0.4723180096858495    0.7414681966968145
     0.2691501870109650    0.0276819903141504    0.0402627748042577
     0.7414681966968145    0.0125807844901074    0.4723180096858495
     0.2711125877932856    0.7585318033031855    0.2308498129890350
     0.2288874122067144    0.4597372251957422    0.4874192155098926
     0.4597372251957422    0.4874192155098926    0.2288874122067144
     0.4723180096858495    0.7414681966968145    0.0125807844901074
     0.0402627748042577    0.2691501870109650    0.0276819903141504
     0.0276819903141504    0.0402627748042577    0.2691501870109650
     0.7585318033031855    0.2308498129890350    0.2711125877932856
     0.4874192155098926    0.2288874122067144    0.4597372251957423
     0.7691501870109648    0.7288874122067143    0.2414681966968146
     0.9874192155098926    0.5276819903141503    0.2585318033031854
     0.7308498129890352    0.9723180096858497    0.9597372251957423
     0.2585318033031854    0.9874192155098926    0.5276819903141503
     0.5125807844901074    0.7711125877932857    0.5402627748042577
     0.2414681966968146    0.7691501870109648    0.7288874122067143
     0.9723180096858497    0.9597372251957423    0.7308498129890352
     0.9597372251957423    0.7308498129890352    0.9723180096858497
     0.5276819903141503    0.2585318033031854    0.9874192155098926
     0.5402627748042577    0.5125807844901074    0.7711125877932857
     0.7711125877932857    0.5402627748042577    0.5125807844901074
     0.7288874122067143    0.2414681966968146    0.7691501870109648
 
  0.00000000E+00  0.00000000E+00  0.00000000E+00
  0.00000000E+00  0.00000000E+00  0.00000000E+00
  0.00000000E+00  0.00000000E+00  0.00000000E+00
  0.00000000E+00  0.00000000E+00  0.00000000E+00
  0.00000000E+00  0.00000000E+00  0.00000000E+00
  0.00000000E+00  0.00000000E+00  0.00000000E+00
  0.00000000E+00  0.00000000E+00  0.00000000E+00
  0.00000000E+00  0.00000000E+00  0.00000000E+00
  0.00000000E+00  0.00000000E+00  0.00000000E+00
  0.00000000E+00  0.00000000E+00  0.00000000E+00
  0.00000000E+00  0.00000000E+00  0.00000000E+00
  0.00000000E+00  0.00000000E+00  0.00000000E+00
  0.00000000E+00  0.00000000E+00  0.00000000E+00
  0.00000000E+00  0.00000000E+00  0.00000000E+00
  0.00000000E+00  0.00000000E+00  0.00000000E+00
  0.00000000E+00  0.00000000E+00  0.00000000E+00
  0.00000000E+00  0.00000000E+00  0.00000000E+00
  0.00000000E+00  0.00000000E+00  0.00000000E+00
  0.00000000E+00  0.00000000E+00  0.00000000E+00
  0.00000000E+00  0.00000000E+00  0.00000000E+00
  0.00000000E+00  0.00000000E+00  0.00000000E+00
  0.00000000E+00  0.00000000E+00  0.00000000E+00
  0.00000000E+00  0.00000000E+00  0.00000000E+00
  0.00000000E+00  0.00000000E+00  0.00000000E+00
  0.00000000E+00  0.00000000E+00  0.00000000E+00
  0.00000000E+00  0.00000000E+00  0.00000000E+00
  0.00000000E+00  0.00000000E+00  0.00000000E+00
  0.00000000E+00  0.00000000E+00  0.00000000E+00
  0.00000000E+00  0.00000000E+00  0.00000000E+00
  0.00000000E+00  0.00000000E+00  0.00000000E+00
  0.00000000E+00  0.00000000E+00  0.00000000E+00
  0.00000000E+00  0.00000000E+00  0.00000000E+00
  0.00000000E+00  0.00000000E+00  0.00000000E+00
  0.00000000E+00  0.00000000E+00  0.00000000E+00
  0.00000000E+00  0.00000000E+00  0.00000000E+00
  0.00000000E+00  0.00000000E+00  0.00000000E+00
  0.00000000E+00  0.00000000E+00  0.00000000E+00
  0.00000000E+00  0.00000000E+00  0.00000000E+00
  0.00000000E+00  0.00000000E+00  0.00000000E+00
  0.00000000E+00  0.00000000E+00  0.00000000E+00
