# algorithm
ALGO  =  Damped

# accuracy
PREC   =  Normal
LREAL  =  False
EDIFF  =  1e-07
ENCUT  =  400.0
LASPH  =  True
NELM   =  100

# ionic relaxation
ISIF    =  3
IBRION  =  2
EDIFFG  =  -0.005
NSW     =  300

# occupation
ISMEAR  =  0
SIGMA   =  0.1

# IO control
LWAVE   =  True
LCHARG  =  False

# analyzer
LORBIT  =  10

# hybrid functional
LHFCALC   =  True
PRECFOCK  =  Fast
AEXX      =  0.36
HFSCREEN  =  0.2
TIME      =  0.4

# parallel
KPAR  =  2