Nd16 O24
1.0
  -5.5641226250    5.5641226250    5.5641226250
   5.5641226250   -5.5641226250    5.5641226250
   5.5641226250    5.5641226250   -5.5641226250
Nd O
16 24
direct
   0.7195384300    0.7500000000    0.4695384300 Nd
   0.2500000000    0.0304615700    0.7804615700 Nd
   0.4695384300    0.7195384300    0.7500000000 Nd
   0.7500000000    0.4695384300    0.7195384300 Nd
   0.0304615700    0.7804615700    0.2500000000 Nd
   0.7804615700    0.2500000000    0.0304615700 Nd
   0.2804615700    0.2500000000    0.5304615700 Nd
   0.7500000000    0.9695384300    0.2195384300 Nd
   0.5304615700    0.2804615700    0.2500000000 Nd
   0.2500000000    0.5304615700    0.2804615700 Nd
   0.9695384300    0.2195384300    0.7500000000 Nd
   0.2195384300    0.7500000000    0.9695384300 Nd
   0.5000000000    0.5000000000    0.0000000000 Nd
   0.0000000000    0.0000000000    0.0000000000 Nd
   0.0000000000    0.5000000000    0.5000000000 Nd
   0.5000000000    0.0000000000    0.5000000000 Nd
   0.2308424300    0.2710499300    0.7587470300 O
   0.0123029000    0.4720954000    0.7412529700 O
   0.2691575700    0.0279046000    0.0402075000 O
   0.7412529700    0.0123029000    0.4720954000 O
   0.2710499300    0.7587470300    0.2308424300 O
   0.2289500700    0.4597925000    0.4876971000 O
   0.4597925000    0.4876971000    0.2289500700 O
   0.4720954000    0.7412529700    0.0123029000 O
   0.0402075000    0.2691575700    0.0279046000 O
   0.0279046000    0.0402075000    0.2691575700 O
   0.7587470300    0.2308424300    0.2710499300 O
   0.4876971000    0.2289500700    0.4597925000 O
   0.7691575700    0.7289500700    0.2412529700 O
   0.9876971000    0.5279046000    0.2587470300 O
   0.7308424300    0.9720954000    0.9597925000 O
   0.2587470300    0.9876971000    0.5279046000 O
   0.5123029000    0.7710499300    0.5402075000 O
   0.2412529700    0.7691575700    0.7289500700 O
   0.9720954000    0.9597925000    0.7308424300 O
   0.9597925000    0.7308424300    0.9720954000 O
   0.5279046000    0.2587470300    0.9876971000 O
   0.5402075000    0.5123029000    0.7710499300 O
   0.7710499300    0.5402075000    0.5123029000 O
   0.7289500700    0.2412529700    0.7691575700 O
