Zn4 S3
1.0
   7.5631677474    0.0000000000    0.0000000000
  -1.8907919369    3.2749477012    0.0000000000
   0.0000000000    0.0000000000    6.2047662326
Zn S
4 3
direct
   0.3440942072    0.3209598842    0.5266150053 Zn
   0.8333333333    0.3333333333    0.5004008683 Zn
   0.1749573236    0.6545125497    0.9872174713 Zn
   0.6851759758    0.6986478581    0.0010683362 Zn
   0.8333333333    0.3333333333    0.8745991317 S
   0.1666666667    0.6666666667    0.3745991317 S
   0.6666666667    0.6666666667    0.3745991317 S
