Cl4                                     
    1.000000000000000     
     3.4184190532484671   -1.9459185619638735    0.0000000000000000
     3.4184190532484671    1.9459185619638735   -0.0000000000000000
     0.0000000000000000    0.0000000000000000    8.0214452010903283
   Cl
     4
Direct
     0.3745792409573859    0.6254207590426137    0.1103309813594959
     0.6254207590426137    0.3745792409573859    0.8896690186405041
     0.1254207590426141    0.8745792409573863    0.6103309813594959
     0.8745792409573863    0.1254207590426141    0.3896690186405042
 
  0.00000000E+00  0.00000000E+00  0.00000000E+00
  0.00000000E+00  0.00000000E+00  0.00000000E+00
  0.00000000E+00  0.00000000E+00  0.00000000E+00
  0.00000000E+00  0.00000000E+00  0.00000000E+00
