Cl4
1.0
   3.3110755800   -2.0134290500    0.0000000000
   3.3110755800    2.0134290500    0.0000000000
   0.0000000000    0.0000000000    8.4513601000
Cl
4
direct
   0.3880657100    0.6119342900    0.1055154300 Cl
   0.6119342900    0.3880657100    0.8944845700 Cl
   0.1119342900    0.8880657100    0.6055154300 Cl
   0.8880657100    0.1119342900    0.3944845700 Cl
