Cs26 Cl27                               
    1.000000000000000     
    12.2263459171999997    0.0000000000000000    0.0000000000000000
     0.0000000000000000   12.2263459171999997    0.0000000000000000
     0.0000000000000000    0.0000000000000000   12.2263459171999997
   Cs   Cl
    26    27
Direct
     0.9998803481650232    0.9995194476947939    0.3158919961691628
     0.0000393717068112    0.9999594747082213    0.6850104343193263
     0.9997866508016530    0.3150558604452612    0.0001820156556532
     0.9999017400165686    0.3329294655038557    0.3335742652536656
     0.9998559938739643    0.3335557813476852    0.6665504325377761
     0.9997346418679609    0.6817402169217045    0.9999541430234239
     0.9998994913155835    0.6662133712960091    0.3334314383341819
     0.0000578470902348    0.6667290134918478    0.6664151213520253
     0.3191977408592074    0.0000868861156007    0.0000258335925019
     0.3325816661547804    0.9999890137353817    0.3336055430088978
     0.3328323087066187    0.9999730442403589    0.6665516392915668
     0.3328279211023096    0.3335130723906153    0.0001820427067178
     0.3330876408158964    0.3333123533013598    0.3334707039513918
     0.3331076356033883    0.3332567127356824    0.6667169833455689
     0.3324357278320989    0.6664956224210102    0.9998618690350008
     0.3332991825221212    0.6666361269156323    0.3332244320023973
     0.3333063854311072    0.6665835654718772    0.6663746236562269
     0.6861096596055244    0.9995964944197689    0.0000926433235983
     0.6661913220535861    0.9996056390740055    0.3337858684133914
     0.6664150318441977    0.0000393929119264    0.6665822826061651
     0.6660490145972726    0.3333930708588314    0.0000128346410551
     0.6662286940444616    0.3329842902471319    0.3334712106194384
     0.6661674994728748    0.3335924090203767    0.6663007209559504
     0.6660009572631492    0.6662333837839959    0.0002011174215039
     0.6664088339559942    0.6659328458447064    0.3339129855990318
     0.6664688525501550    0.6665773462551829    0.6665958724435118
     0.1729344213445144    0.1725520317433096    0.1728226374882053
     0.1662073149447584    0.1664546595785482    0.5004441129982627
     0.1731538245593608    0.1727015881579256    0.8274317117969000
     0.1660269222355689    0.4996579283358037    0.1668064976085316
     0.1663877399507635    0.4999047121760651    0.4999370466453612
     0.1659771456786648    0.4998697275827624    0.8333231040948715
     0.1729462687510346    0.8269263763597567    0.1722636141055038
     0.1662559652728815    0.8331186253539645    0.4995547372828615
     0.1730284419022619    0.8269494795086464    0.8272532307024821
     0.4997592386081208    0.1666437735277573    0.1668691961750520
     0.4994766723132834    0.1664477563712730    0.5001090775058681
     0.4999675545955926    0.1667303828124756    0.8332960433796416
     0.4991319576274755    0.4999240592002134    0.1668351879473600
     0.4997843765448661    0.4998848267556437    0.5000485018414438
     0.4991984218106713    0.4998170504112815    0.8332374074412804
     0.5001413130754193    0.8333347427696094    0.1667277385679930
     0.4994236505507157    0.8333152683503138    0.5001515771599013
     0.5002183807735906    0.8333924047957826    0.8333469908700849
     0.8269574556190959    0.1723666225718625    0.1730552722892962
     0.8328147264125092    0.1662130737719681    0.4998767870785304
     0.8268506067983130    0.1730795620437728    0.8269947091778028
     0.8324913705535835    0.4985614233802023    0.1667761179776574
     0.8332636510338955    0.4999949939127518    0.5000068358176176
     0.8323973185486530    0.4999631275507566    0.8332253486910044
     0.8267902464747490    0.8260174574544651    0.1730871955292353
     0.8328187176313049    0.8331879800743822    0.5004718402142792
     0.8271912797358223    0.8266452527958946    0.8275129539538507
 
  0.00000000E+00  0.00000000E+00  0.00000000E+00
  0.00000000E+00  0.00000000E+00  0.00000000E+00
  0.00000000E+00  0.00000000E+00  0.00000000E+00
  0.00000000E+00  0.00000000E+00  0.00000000E+00
  0.00000000E+00  0.00000000E+00  0.00000000E+00
  0.00000000E+00  0.00000000E+00  0.00000000E+00
  0.00000000E+00  0.00000000E+00  0.00000000E+00
  0.00000000E+00  0.00000000E+00  0.00000000E+00
  0.00000000E+00  0.00000000E+00  0.00000000E+00
  0.00000000E+00  0.00000000E+00  0.00000000E+00
  0.00000000E+00  0.00000000E+00  0.00000000E+00
  0.00000000E+00  0.00000000E+00  0.00000000E+00
  0.00000000E+00  0.00000000E+00  0.00000000E+00
  0.00000000E+00  0.00000000E+00  0.00000000E+00
  0.00000000E+00  0.00000000E+00  0.00000000E+00
  0.00000000E+00  0.00000000E+00  0.00000000E+00
  0.00000000E+00  0.00000000E+00  0.00000000E+00
  0.00000000E+00  0.00000000E+00  0.00000000E+00
  0.00000000E+00  0.00000000E+00  0.00000000E+00
  0.00000000E+00  0.00000000E+00  0.00000000E+00
  0.00000000E+00  0.00000000E+00  0.00000000E+00
  0.00000000E+00  0.00000000E+00  0.00000000E+00
  0.00000000E+00  0.00000000E+00  0.00000000E+00
  0.00000000E+00  0.00000000E+00  0.00000000E+00
  0.00000000E+00  0.00000000E+00  0.00000000E+00
  0.00000000E+00  0.00000000E+00  0.00000000E+00
  0.00000000E+00  0.00000000E+00  0.00000000E+00
  0.00000000E+00  0.00000000E+00  0.00000000E+00
  0.00000000E+00  0.00000000E+00  0.00000000E+00
  0.00000000E+00  0.00000000E+00  0.00000000E+00
  0.00000000E+00  0.00000000E+00  0.00000000E+00
  0.00000000E+00  0.00000000E+00  0.00000000E+00
  0.00000000E+00  0.00000000E+00  0.00000000E+00
  0.00000000E+00  0.00000000E+00  0.00000000E+00
  0.00000000E+00  0.00000000E+00  0.00000000E+00
  0.00000000E+00  0.00000000E+00  0.00000000E+00
  0.00000000E+00  0.00000000E+00  0.00000000E+00
  0.00000000E+00  0.00000000E+00  0.00000000E+00
  0.00000000E+00  0.00000000E+00  0.00000000E+00
  0.00000000E+00  0.00000000E+00  0.00000000E+00
  0.00000000E+00  0.00000000E+00  0.00000000E+00
  0.00000000E+00  0.00000000E+00  0.00000000E+00
  0.00000000E+00  0.00000000E+00  0.00000000E+00
  0.00000000E+00  0.00000000E+00  0.00000000E+00
  0.00000000E+00  0.00000000E+00  0.00000000E+00
  0.00000000E+00  0.00000000E+00  0.00000000E+00
  0.00000000E+00  0.00000000E+00  0.00000000E+00
  0.00000000E+00  0.00000000E+00  0.00000000E+00
  0.00000000E+00  0.00000000E+00  0.00000000E+00
  0.00000000E+00  0.00000000E+00  0.00000000E+00
  0.00000000E+00  0.00000000E+00  0.00000000E+00
  0.00000000E+00  0.00000000E+00  0.00000000E+00
  0.00000000E+00  0.00000000E+00  0.00000000E+00
