Zn5 S3
1.0
   7.5631677474    0.0000000000    0.0000000000
  -1.8907919369    3.2749477012    0.0000000000
   0.0000000000    0.0000000000    6.2047662326
Zn S
5 3
direct
   0.3333333333    0.3333333333    0.8745991317 Zn
   0.3336815026    0.3239153333    0.4996665800 Zn
   0.8333333333    0.3333333333    0.5004008683 Zn
   0.1790285219    0.6768520133    0.9890808558 Zn
   0.6667228436    0.6669086888    0.0003760036 Zn
   0.8333333333    0.3333333333    0.8745991317 S
   0.1666666667    0.6666666667    0.3745991317 S
   0.6666666667    0.6666666667    0.3745991317 S
