Cs27 Cl26                               
    1.000000000000000     
    12.2263459171999997    0.0000000000000000    0.0000000000000000
     0.0000000000000000   12.2263459171999997    0.0000000000000000
     0.0000000000000000    0.0000000000000000   12.2263459171999997
   Cs   Cl
    27    26
Direct
     0.9914615910810032    0.9931937118449656    0.9912550928206046
     0.9923017874424744    0.9936093251746918    0.3416895081201981
     0.0003852483104074    0.0006924157024931    0.6664291514052660
     0.9910639541423116    0.3428534819096731    0.9906049242987722
     0.9913898829419500    0.3429762081812121    0.3398984835578295
     0.0002658003216814    0.3334809164677551    0.6657363490329012
     0.0002356932205997    0.6674824178162649    0.0001565554471870
     0.0002612589652501    0.6681103640654257    0.3331225515492637
     0.9997304819745945    0.6671261121097326    0.6665964337208631
     0.3416044967351581    0.9930736764699318    0.9923683860619610
     0.3426720710197557    0.9915469860539111    0.3422309342564526
     0.3332620607614902    0.0003931139832446    0.6672060353434893
     0.3406758586344151    0.3424996625418904    0.9905608691745110
     0.3416560684277756    0.3415658581454008    0.3397921649114428
     0.3331723668216159    0.3334449707598492    0.6655638838838072
     0.3330098267913621    0.6675794733552307    0.0002465339942514
     0.3331951417323177    0.6668403472168656    0.3331172746083266
     0.3336264759928740    0.6671077402154684    0.6666299754871770
     0.6667131316745735    0.0005188239478933    0.0000903890929056
     0.6672961348032520    0.0002981430857857    0.3330956855293885
     0.6667030844385409    0.0000740875631318    0.6663243390044480
     0.6664583135561177    0.3333490784529903    0.9999667510206185
     0.6667837388680617    0.3333500147487646    0.3328553609191975
     0.6667029332385837    0.3338413924187228    0.6663629907804755
     0.6664635680960418    0.6669432136778858    0.9995840365887921
     0.6664966289246103    0.6668163469032441    0.3334626411527238
     0.6664648577363540    0.6670339952589273    0.6663431959965310
     0.1672004292626601    0.1674839895690962    0.4847670006989799
     0.1661759096512274    0.1679224728564663    0.8470111377219467
     0.1661926276468780    0.4865566478685356    0.1653336741394757
     0.1665517727327887    0.5008210956302265    0.4989429607029953
     0.1663623028544812    0.5013482261854760    0.8320256625717094
     0.1668438607196371    0.8490858538767605    0.1670783936196961
     0.1672671905962432    0.8338354534262237    0.5007689689692170
     0.1665759848643478    0.8342753700381265    0.8336009169519301
     0.4857824477629047    0.1669642312437416    0.1662347727916428
     0.5009425157459886    0.1664801216331464    0.5000539195291502
     0.4999475548281824    0.1674784444666676    0.8328037140481076
     0.4997462867116888    0.5003913999425229    0.1657808721664191
     0.5001354072610913    0.4998814161990960    0.4994753858299894
     0.5002809653385707    0.5013342380334284    0.8319547838892626
     0.5006793411065454    0.8332892817761094    0.1671504746114391
     0.5012118701828375    0.8324018851432566    0.5010501577467287
     0.5003179757442882    0.8337835549047286    0.8335808940965563
     0.8476232099097737    0.1680034774161971    0.1659390299143919
     0.8334866059855333    0.1677359151369170    0.4996086697349868
     0.8326452243010500    0.1673203079377425    0.8322599073481272
     0.8325680571177575    0.5016150703375964    0.1660374121423118
     0.8327390468501508    0.5014410234015040    0.4998244921515358
     0.8322748741733206    0.5014701159065864    0.8320154805008914
     0.8334166595339829    0.8343626186910831    0.1664826618151614
     0.8336251270641292    0.8338338128259108    0.5002451029440252
     0.8325991378007606    0.8335048470815016    0.8325576668039377
 
  0.00000000E+00  0.00000000E+00  0.00000000E+00
  0.00000000E+00  0.00000000E+00  0.00000000E+00
  0.00000000E+00  0.00000000E+00  0.00000000E+00
  0.00000000E+00  0.00000000E+00  0.00000000E+00
  0.00000000E+00  0.00000000E+00  0.00000000E+00
  0.00000000E+00  0.00000000E+00  0.00000000E+00
  0.00000000E+00  0.00000000E+00  0.00000000E+00
  0.00000000E+00  0.00000000E+00  0.00000000E+00
  0.00000000E+00  0.00000000E+00  0.00000000E+00
  0.00000000E+00  0.00000000E+00  0.00000000E+00
  0.00000000E+00  0.00000000E+00  0.00000000E+00
  0.00000000E+00  0.00000000E+00  0.00000000E+00
  0.00000000E+00  0.00000000E+00  0.00000000E+00
  0.00000000E+00  0.00000000E+00  0.00000000E+00
  0.00000000E+00  0.00000000E+00  0.00000000E+00
  0.00000000E+00  0.00000000E+00  0.00000000E+00
  0.00000000E+00  0.00000000E+00  0.00000000E+00
  0.00000000E+00  0.00000000E+00  0.00000000E+00
  0.00000000E+00  0.00000000E+00  0.00000000E+00
  0.00000000E+00  0.00000000E+00  0.00000000E+00
  0.00000000E+00  0.00000000E+00  0.00000000E+00
  0.00000000E+00  0.00000000E+00  0.00000000E+00
  0.00000000E+00  0.00000000E+00  0.00000000E+00
  0.00000000E+00  0.00000000E+00  0.00000000E+00
  0.00000000E+00  0.00000000E+00  0.00000000E+00
  0.00000000E+00  0.00000000E+00  0.00000000E+00
  0.00000000E+00  0.00000000E+00  0.00000000E+00
  0.00000000E+00  0.00000000E+00  0.00000000E+00
  0.00000000E+00  0.00000000E+00  0.00000000E+00
  0.00000000E+00  0.00000000E+00  0.00000000E+00
  0.00000000E+00  0.00000000E+00  0.00000000E+00
  0.00000000E+00  0.00000000E+00  0.00000000E+00
  0.00000000E+00  0.00000000E+00  0.00000000E+00
  0.00000000E+00  0.00000000E+00  0.00000000E+00
  0.00000000E+00  0.00000000E+00  0.00000000E+00
  0.00000000E+00  0.00000000E+00  0.00000000E+00
  0.00000000E+00  0.00000000E+00  0.00000000E+00
  0.00000000E+00  0.00000000E+00  0.00000000E+00
  0.00000000E+00  0.00000000E+00  0.00000000E+00
  0.00000000E+00  0.00000000E+00  0.00000000E+00
  0.00000000E+00  0.00000000E+00  0.00000000E+00
  0.00000000E+00  0.00000000E+00  0.00000000E+00
  0.00000000E+00  0.00000000E+00  0.00000000E+00
  0.00000000E+00  0.00000000E+00  0.00000000E+00
  0.00000000E+00  0.00000000E+00  0.00000000E+00
  0.00000000E+00  0.00000000E+00  0.00000000E+00
  0.00000000E+00  0.00000000E+00  0.00000000E+00
  0.00000000E+00  0.00000000E+00  0.00000000E+00
  0.00000000E+00  0.00000000E+00  0.00000000E+00
  0.00000000E+00  0.00000000E+00  0.00000000E+00
  0.00000000E+00  0.00000000E+00  0.00000000E+00
  0.00000000E+00  0.00000000E+00  0.00000000E+00
  0.00000000E+00  0.00000000E+00  0.00000000E+00
