Na1 Zn53 O54                            
    1.000000000000000     
     9.7481175735000001    0.0000000000000000    0.0000000000000000
    -4.8740587867000000    8.4421174577000002    0.0000000000000000
     0.0000000000000000    0.0000000000000000   15.6316036913000005
   Zn   O    Na
    53    54     1
Direct
     0.1112739501162520    0.2221435544535364    0.3306554032454649
     0.1109731654137017    0.2222580069911104    0.6670504209560465
     0.1116809565245136    0.5555956574591880    0.9999193009324637
     0.1109059003209420    0.5558555964715981    0.3332611929577685
     0.1110657983302305    0.5555810270424774    0.6667870488356711
     0.1117911059494819    0.8894438442474929    0.9998062637592130
     0.1108819635168175    0.8881053143266003    0.3333606040231145
     0.1109879772005634    0.8886576918165048    0.6665991517238395
     0.4431124385177232    0.2209282550493048    0.9997079741482277
     0.4452647439701221    0.2224617008106729    0.3333429483258009
     0.4446160493985924    0.2222959133358068    0.6666653379136317
     0.4432096969357378    0.5554688639470859    0.9998652589218687
     0.4450739846912694    0.5559484700710706    0.3332440627266736
     0.4444744695137536    0.5556276975749893    0.6668046779378680
     0.4443200125209408    0.8887890186781551    0.9993440988409178
     0.4444644125197013    0.8889448761640714    0.3328594871225670
     0.4444805204090590    0.8888740105141414    0.6675418907136172
     0.7772252349301232    0.2211865105916632    0.9999249634997863
     0.7774519438453690    0.2223827727058702    0.3332323715117308
     0.7777556565370065    0.2222234853357628    0.6668428711678407
     0.7774250380579323    0.5552842200120917    0.0003817495056466
     0.7776888461336134    0.5555026941876112    0.3329285090144377
     0.7777674223169829    0.5555250000316062    0.6675753609279459
     0.7771263828164701    0.8891037233691367    0.9999398878998065
     0.7773663018531538    0.8882921889910055    0.3332417884604184
     0.7776853692070057    0.8888246855256656    0.6667847042323559
     0.2226281240003367    0.1107008544540642    0.1675518375747496
     0.2219710342610234    0.1113493977548115    0.4994273201858642
     0.2226028987318286    0.1104692550899324    0.8339257639692430
     0.2223163176599390    0.4440810972022134    0.1673848653506168
     0.2219816822444379    0.4439591578876179    0.4994109575181517
     0.2225537653816815    0.4453199068519909    0.8344031919036266
     0.2224369373701374    0.7775578813620174    0.1661584335991897
     0.2223664204419781    0.7778035308585600    0.5000242119316300
     0.2219027177566430    0.7776325137785488    0.8345118780620244
     0.5557912038494175    0.1109694675893608    0.1661065535704088
     0.5555415176669719    0.1109768018952545    0.5000670678719321
     0.5556305862082420    0.1114371911842958    0.8345211136054705
     0.5549511311468590    0.4439216937540102    0.1661989599703348
     0.5557015996553030    0.4445533689100480    0.5000590498902383
     0.5549000684968549    0.4441089530021676    0.8339750950432574
     0.5554879001684697    0.7777696645362961    0.1662414794283245
     0.5554928920590244    0.7778366471116546    0.5000868019567249
     0.5556092181830141    0.7775422782858823    0.8345719888350007
     0.8892843817053857    0.1109733078871005    0.1673676110169454
     0.8893541454693523    0.1113427743353505    0.4993938860269983
     0.8877196533851134    0.1104481973318355    0.8344797887088765
     0.8891447072401131    0.4441143617801865    0.1663908100424572
     0.8887992188249835    0.4444881460051565    0.5000724118063121
     0.8890904503663396    0.4441483793424991    0.8340370974987024
     0.8892703463702700    0.7781161838191469    0.1663228031624573
     0.8887516493433590    0.7776183073967938    0.5000237107649051
     0.8890642646668329    0.7781625990774131    0.8339901531874759
     0.1115065963727678    0.2218637955882089    0.1413997795571161
     0.1111019664751618    0.2222214914824682    0.4595678084026256
     0.1108310895183640    0.2221573142391795    0.7932449671637871
     0.1109879215094974    0.5557219865752340    0.1280656168853369
     0.1108309890341205    0.5557455647950010    0.4606051348240100
     0.1101595562046014    0.5561326405904679    0.7926183804686318
     0.1110484622198416    0.8880376867226684    0.1279544411520137
     0.1108377637786167    0.8883725999744260    0.4607000925013824
     0.1100419882872210    0.8871774003987430    0.7924315506107230
     0.4451476915567397    0.2221462091761777    0.1278880309502551
     0.4449637235692430    0.2224791173138959    0.4606895381514043
     0.4458768076732263    0.2230952174989319    0.7924613712822274
     0.4450713901967135    0.5559651734554680    0.1280166111940196
     0.4449161885386614    0.5558210038803054    0.4605948025770074
     0.4457243067437148    0.5560610441243888    0.7926458209745011
     0.4444965937299278    0.8888193084345364    0.1274579111837441
     0.4444646757747120    0.8889023714318233    0.4601438296937385
     0.4444059990400788    0.8888933019883322    0.7938225168952019
     0.7776572641333049    0.2223165718575268    0.1280616517025567
     0.7775500130710511    0.2224594876260240    0.4605743324477317
     0.7771629136672716    0.2230705026990601    0.7926799953462316
     0.7777767256218668    0.5554119380897389    0.1279077606738898
     0.7777620776740903    0.5555175110439000    0.4601653682240889
     0.7776781052175538    0.5554518084613460    0.7939360904912379
     0.7773462525938658    0.8880700254205568    0.1280817276080965
     0.7774929041563113    0.8884224675664047    0.4605850400342152
     0.7770953227458112    0.8872835019765209    0.7926448885461730
     0.2236675031729384    0.1097011385618629    0.2961496698272723
     0.2222201949217303    0.1110886072009513    0.6264368957901495
     0.2312844853122925    0.1011411616164616    0.9566341496312333
     0.2235380696150950    0.4469291669530376    0.2960186963855336
     0.2222583775036288    0.4445269919434215    0.6263752236042260
     0.2311829964913867    0.4631842222981600    0.9570760301202345
     0.2223427779365206    0.7777452264452638    0.2939309017619855
     0.2226998350963141    0.7779454777328259    0.6266376736135166
     0.2219527678422589    0.7775454178507062    0.9607324331851925
     0.5555942102994301    0.1110114237269784    0.2938851369573973
     0.5554063421807893    0.1106695962300884    0.6266693261548127
     0.5552679654487843    0.1109853293237846    0.9607147432119735
     0.5557791906832087    0.4445094475694366    0.2939925259802189
     0.5559569714616944    0.4447105658567664    0.6266701338956131
     0.5560675573951560    0.4447025005833738    0.9608790563426420
     0.5554803508240611    0.7778273055187152    0.2939696958470052
     0.5553362640251329    0.7779592889291174    0.6266813592608728
     0.5552038835748536    0.7774487929448152    0.9607699015793725
     0.8864719276270594    0.1098323706167026    0.2960098323400759
     0.8887432665429297    0.1110312479538007    0.6263556972836160
     0.8690283323220380    0.1010284229810757    0.9570924648911137
     0.8887476551035804    0.4445680041986337    0.2941157212620885
     0.8886671178686258    0.4445845384805553    0.6266886516551428
     0.8881793221977989    0.4447005664147367    0.9609224605137103
     0.8887833667891142    0.7774821269495632    0.2940860275096285
     0.8885718731011228    0.7773184707023392    0.6266429609765430
     0.8881330711577483    0.7765797823623068    0.9608914130053740
     0.1104842152993948    0.2216916013547543    0.0011942810848919
 
  0.00000000E+00  0.00000000E+00  0.00000000E+00
  0.00000000E+00  0.00000000E+00  0.00000000E+00
  0.00000000E+00  0.00000000E+00  0.00000000E+00
  0.00000000E+00  0.00000000E+00  0.00000000E+00
  0.00000000E+00  0.00000000E+00  0.00000000E+00
  0.00000000E+00  0.00000000E+00  0.00000000E+00
  0.00000000E+00  0.00000000E+00  0.00000000E+00
  0.00000000E+00  0.00000000E+00  0.00000000E+00
  0.00000000E+00  0.00000000E+00  0.00000000E+00
  0.00000000E+00  0.00000000E+00  0.00000000E+00
  0.00000000E+00  0.00000000E+00  0.00000000E+00
  0.00000000E+00  0.00000000E+00  0.00000000E+00
  0.00000000E+00  0.00000000E+00  0.00000000E+00
  0.00000000E+00  0.00000000E+00  0.00000000E+00
  0.00000000E+00  0.00000000E+00  0.00000000E+00
  0.00000000E+00  0.00000000E+00  0.00000000E+00
  0.00000000E+00  0.00000000E+00  0.00000000E+00
  0.00000000E+00  0.00000000E+00  0.00000000E+00
  0.00000000E+00  0.00000000E+00  0.00000000E+00
  0.00000000E+00  0.00000000E+00  0.00000000E+00
  0.00000000E+00  0.00000000E+00  0.00000000E+00
  0.00000000E+00  0.00000000E+00  0.00000000E+00
  0.00000000E+00  0.00000000E+00  0.00000000E+00
  0.00000000E+00  0.00000000E+00  0.00000000E+00
  0.00000000E+00  0.00000000E+00  0.00000000E+00
  0.00000000E+00  0.00000000E+00  0.00000000E+00
  0.00000000E+00  0.00000000E+00  0.00000000E+00
  0.00000000E+00  0.00000000E+00  0.00000000E+00
  0.00000000E+00  0.00000000E+00  0.00000000E+00
  0.00000000E+00  0.00000000E+00  0.00000000E+00
  0.00000000E+00  0.00000000E+00  0.00000000E+00
  0.00000000E+00  0.00000000E+00  0.00000000E+00
  0.00000000E+00  0.00000000E+00  0.00000000E+00
  0.00000000E+00  0.00000000E+00  0.00000000E+00
  0.00000000E+00  0.00000000E+00  0.00000000E+00
  0.00000000E+00  0.00000000E+00  0.00000000E+00
  0.00000000E+00  0.00000000E+00  0.00000000E+00
  0.00000000E+00  0.00000000E+00  0.00000000E+00
  0.00000000E+00  0.00000000E+00  0.00000000E+00
  0.00000000E+00  0.00000000E+00  0.00000000E+00
  0.00000000E+00  0.00000000E+00  0.00000000E+00
  0.00000000E+00  0.00000000E+00  0.00000000E+00
  0.00000000E+00  0.00000000E+00  0.00000000E+00
  0.00000000E+00  0.00000000E+00  0.00000000E+00
  0.00000000E+00  0.00000000E+00  0.00000000E+00
  0.00000000E+00  0.00000000E+00  0.00000000E+00
  0.00000000E+00  0.00000000E+00  0.00000000E+00
  0.00000000E+00  0.00000000E+00  0.00000000E+00
  0.00000000E+00  0.00000000E+00  0.00000000E+00
  0.00000000E+00  0.00000000E+00  0.00000000E+00
  0.00000000E+00  0.00000000E+00  0.00000000E+00
  0.00000000E+00  0.00000000E+00  0.00000000E+00
  0.00000000E+00  0.00000000E+00  0.00000000E+00
  0.00000000E+00  0.00000000E+00  0.00000000E+00
  0.00000000E+00  0.00000000E+00  0.00000000E+00
  0.00000000E+00  0.00000000E+00  0.00000000E+00
  0.00000000E+00  0.00000000E+00  0.00000000E+00
  0.00000000E+00  0.00000000E+00  0.00000000E+00
  0.00000000E+00  0.00000000E+00  0.00000000E+00
  0.00000000E+00  0.00000000E+00  0.00000000E+00
  0.00000000E+00  0.00000000E+00  0.00000000E+00
  0.00000000E+00  0.00000000E+00  0.00000000E+00
  0.00000000E+00  0.00000000E+00  0.00000000E+00
  0.00000000E+00  0.00000000E+00  0.00000000E+00
  0.00000000E+00  0.00000000E+00  0.00000000E+00
  0.00000000E+00  0.00000000E+00  0.00000000E+00
  0.00000000E+00  0.00000000E+00  0.00000000E+00
  0.00000000E+00  0.00000000E+00  0.00000000E+00
  0.00000000E+00  0.00000000E+00  0.00000000E+00
  0.00000000E+00  0.00000000E+00  0.00000000E+00
  0.00000000E+00  0.00000000E+00  0.00000000E+00
  0.00000000E+00  0.00000000E+00  0.00000000E+00
  0.00000000E+00  0.00000000E+00  0.00000000E+00
  0.00000000E+00  0.00000000E+00  0.00000000E+00
  0.00000000E+00  0.00000000E+00  0.00000000E+00
  0.00000000E+00  0.00000000E+00  0.00000000E+00
  0.00000000E+00  0.00000000E+00  0.00000000E+00
  0.00000000E+00  0.00000000E+00  0.00000000E+00
  0.00000000E+00  0.00000000E+00  0.00000000E+00
  0.00000000E+00  0.00000000E+00  0.00000000E+00
  0.00000000E+00  0.00000000E+00  0.00000000E+00
  0.00000000E+00  0.00000000E+00  0.00000000E+00
  0.00000000E+00  0.00000000E+00  0.00000000E+00
  0.00000000E+00  0.00000000E+00  0.00000000E+00
  0.00000000E+00  0.00000000E+00  0.00000000E+00
  0.00000000E+00  0.00000000E+00  0.00000000E+00
  0.00000000E+00  0.00000000E+00  0.00000000E+00
  0.00000000E+00  0.00000000E+00  0.00000000E+00
  0.00000000E+00  0.00000000E+00  0.00000000E+00
  0.00000000E+00  0.00000000E+00  0.00000000E+00
  0.00000000E+00  0.00000000E+00  0.00000000E+00
  0.00000000E+00  0.00000000E+00  0.00000000E+00
  0.00000000E+00  0.00000000E+00  0.00000000E+00
  0.00000000E+00  0.00000000E+00  0.00000000E+00
  0.00000000E+00  0.00000000E+00  0.00000000E+00
  0.00000000E+00  0.00000000E+00  0.00000000E+00
  0.00000000E+00  0.00000000E+00  0.00000000E+00
  0.00000000E+00  0.00000000E+00  0.00000000E+00
  0.00000000E+00  0.00000000E+00  0.00000000E+00
  0.00000000E+00  0.00000000E+00  0.00000000E+00
  0.00000000E+00  0.00000000E+00  0.00000000E+00
  0.00000000E+00  0.00000000E+00  0.00000000E+00
  0.00000000E+00  0.00000000E+00  0.00000000E+00
  0.00000000E+00  0.00000000E+00  0.00000000E+00
  0.00000000E+00  0.00000000E+00  0.00000000E+00
  0.00000000E+00  0.00000000E+00  0.00000000E+00
  0.00000000E+00  0.00000000E+00  0.00000000E+00
  0.00000000E+00  0.00000000E+00  0.00000000E+00
