Cs26 Cl27                               
    1.000000000000000     
    12.2263459171999997    0.0000000000000000    0.0000000000000000
     0.0000000000000000   12.2263459171999997    0.0000000000000000
     0.0000000000000000    0.0000000000000000   12.2263459171999997
   Cs   Cl
    26    27
Direct
     0.9998292740484663    0.9995511692893031    0.3162948545355433
     0.9999511048094101    0.9999534142420319    0.6839011538848803
     0.9997155733523795    0.3159442226832750    0.0001281587238698
     0.9997710377817619    0.3331093298784488    0.3337834894992696
     0.9997656035321735    0.3337068216806584    0.6663604671202695
     0.9998102972040173    0.6822323207889903    0.9999850613604593
     0.9998666715463600    0.6659958332495044    0.3335856568292511
     0.9999884511892264    0.6664022301288157    0.6662678218242356
     0.3197635397499999    0.9999857806104364    0.9999917092515833
     0.3329424486888480    0.9999103049045945    0.3336966256252317
     0.3331369137094212    0.9999556245707319    0.6663768520175858
     0.3330686397499860    0.3336336105356587    0.0002019930614133
     0.3335132047082812    0.3337530318112895    0.3340430791499783
     0.3335404655072481    0.3337569559797681    0.6662303757464900
     0.3328668692453330    0.6662068358671445    0.9998984062766195
     0.3336802316148815    0.6661596847757690    0.3337187799539291
     0.3338249733592425    0.6660298639307068    0.6659385359088542
     0.6840750880017722    0.9996185634993726    0.9999692660791207
     0.6661798179999716    0.9995720560727724    0.3340161254100733
     0.6664503795390968    0.9999534177630179    0.6665511139470101
     0.6660785412430827    0.3336067706003021    0.9999818316676427
     0.6658667625888222    0.3334694564427487    0.3340927752107507
     0.6658296558278433    0.3340332834681112    0.6657445629400275
     0.6658443752835169    0.6660790343480293    0.0000844532876668
     0.6659760974871244    0.6654157560146581    0.3344226556532663
     0.6661278980215211    0.6660782555362101    0.6661635980801740
     0.1730659892697442    0.1723967448845456    0.1726931397069525
     0.1660664979016909    0.1661865107702521    0.5004277432045153
     0.1732658506822178    0.1725250395032282    0.8276187843780537
     0.1659343500369425    0.4996573236737906    0.1666340650684635
     0.1663938855962157    0.4998317904616624    0.4999112608588074
     0.1659171505431382    0.4998018191103080    0.8335428269926314
     0.1729215220128709    0.8270924643215972    0.1721651824262865
     0.1661549394288641    0.8332982375271294    0.4995576410787614
     0.1730980977197537    0.8271330495404193    0.8274184183940910
     0.4997240358144026    0.1664626628998978    0.1667566642748654
     0.4994240946355553    0.1663182678060835    0.5001262280384730
     0.4999339941985300    0.1665237681846004    0.8335476783759265
     0.4990895643016942    0.4998573458986250    0.1667873097738988
     0.4996388979357713    0.4998496136151366    0.5000358822174130
     0.4991245308631074    0.4997650094183320    0.8333517486963239
     0.4999867213172907    0.8334721747654281    0.1666039263460848
     0.4993831346465013    0.8333800442459786    0.5001764093896471
     0.5002826810826208    0.8335720187424578    0.8335905339897465
     0.8270431821515595    0.1724687762943112    0.1731804906143721
     0.8330584705198635    0.1659949115928849    0.4999212035483558
     0.8268194320860748    0.1730172561797268    0.8270538337665561
     0.8326315474680753    0.4986149632132340    0.1667011981598180
     0.8333995684848625    0.4999504351930105    0.4999848235367569
     0.8325676537542055    0.4998831098167341    0.8333872765454453
     0.8267541333398438    0.8261775583631731    0.1731375085972737
     0.8330255631527396    0.8332753764793349    0.5004007249322141
     0.8272977378660887    0.8265388873257792    0.8273026216430809
 
  0.00000000E+00  0.00000000E+00  0.00000000E+00
  0.00000000E+00  0.00000000E+00  0.00000000E+00
  0.00000000E+00  0.00000000E+00  0.00000000E+00
  0.00000000E+00  0.00000000E+00  0.00000000E+00
  0.00000000E+00  0.00000000E+00  0.00000000E+00
  0.00000000E+00  0.00000000E+00  0.00000000E+00
  0.00000000E+00  0.00000000E+00  0.00000000E+00
  0.00000000E+00  0.00000000E+00  0.00000000E+00
  0.00000000E+00  0.00000000E+00  0.00000000E+00
  0.00000000E+00  0.00000000E+00  0.00000000E+00
  0.00000000E+00  0.00000000E+00  0.00000000E+00
  0.00000000E+00  0.00000000E+00  0.00000000E+00
  0.00000000E+00  0.00000000E+00  0.00000000E+00
  0.00000000E+00  0.00000000E+00  0.00000000E+00
  0.00000000E+00  0.00000000E+00  0.00000000E+00
  0.00000000E+00  0.00000000E+00  0.00000000E+00
  0.00000000E+00  0.00000000E+00  0.00000000E+00
  0.00000000E+00  0.00000000E+00  0.00000000E+00
  0.00000000E+00  0.00000000E+00  0.00000000E+00
  0.00000000E+00  0.00000000E+00  0.00000000E+00
  0.00000000E+00  0.00000000E+00  0.00000000E+00
  0.00000000E+00  0.00000000E+00  0.00000000E+00
  0.00000000E+00  0.00000000E+00  0.00000000E+00
  0.00000000E+00  0.00000000E+00  0.00000000E+00
  0.00000000E+00  0.00000000E+00  0.00000000E+00
  0.00000000E+00  0.00000000E+00  0.00000000E+00
  0.00000000E+00  0.00000000E+00  0.00000000E+00
  0.00000000E+00  0.00000000E+00  0.00000000E+00
  0.00000000E+00  0.00000000E+00  0.00000000E+00
  0.00000000E+00  0.00000000E+00  0.00000000E+00
  0.00000000E+00  0.00000000E+00  0.00000000E+00
  0.00000000E+00  0.00000000E+00  0.00000000E+00
  0.00000000E+00  0.00000000E+00  0.00000000E+00
  0.00000000E+00  0.00000000E+00  0.00000000E+00
  0.00000000E+00  0.00000000E+00  0.00000000E+00
  0.00000000E+00  0.00000000E+00  0.00000000E+00
  0.00000000E+00  0.00000000E+00  0.00000000E+00
  0.00000000E+00  0.00000000E+00  0.00000000E+00
  0.00000000E+00  0.00000000E+00  0.00000000E+00
  0.00000000E+00  0.00000000E+00  0.00000000E+00
  0.00000000E+00  0.00000000E+00  0.00000000E+00
  0.00000000E+00  0.00000000E+00  0.00000000E+00
  0.00000000E+00  0.00000000E+00  0.00000000E+00
  0.00000000E+00  0.00000000E+00  0.00000000E+00
  0.00000000E+00  0.00000000E+00  0.00000000E+00
  0.00000000E+00  0.00000000E+00  0.00000000E+00
  0.00000000E+00  0.00000000E+00  0.00000000E+00
  0.00000000E+00  0.00000000E+00  0.00000000E+00
  0.00000000E+00  0.00000000E+00  0.00000000E+00
  0.00000000E+00  0.00000000E+00  0.00000000E+00
  0.00000000E+00  0.00000000E+00  0.00000000E+00
  0.00000000E+00  0.00000000E+00  0.00000000E+00
  0.00000000E+00  0.00000000E+00  0.00000000E+00
