Cs26 Cl27
1.0
  12.2263459172    0.0000000000    0.0000000000
   0.0000000000   12.2263459172    0.0000000000
   0.0000000000    0.0000000000   12.2263459172
Cs Cl
26 27
direct
   0.9954696523    0.9967110883    0.3358317834 Cs
   0.9987481255    0.9991099192    0.6653131742 Cs
   0.9981569183    0.3379625867    0.0006720321 Cs
   0.0000000000    0.3333333333    0.3333333333 Cs
   0.0000000000    0.3333333333    0.6666666667 Cs
   0.9906747218    0.6558813919    0.9992159582 Cs
   0.0000000000    0.6666666667    0.3333333333 Cs
   0.0000000000    0.6666666667    0.6666666667 Cs
   0.3437861171    0.0010921814    0.0014356345 Cs
   0.3333333333    0.0000000000    0.3333333333 Cs
   0.3333333333    0.0000000000    0.6666666667 Cs
   0.3333333333    0.3333333333    0.0000000000 Cs
   0.3333333333    0.3333333333    0.3333333333 Cs
   0.3333333333    0.3333333333    0.6666666667 Cs
   0.3333333333    0.6666666667    0.0000000000 Cs
   0.3333333333    0.6666666667    0.3333333333 Cs
   0.3333333333    0.6666666667    0.6666666667 Cs
   0.6783088178    0.9996639806    0.9980327215 Cs
   0.6666666667    0.0000000000    0.3333333333 Cs
   0.6666666667    0.0000000000    0.6666666667 Cs
   0.6666666667    0.3333333333    0.0000000000 Cs
   0.6666666667    0.3333333333    0.3333333333 Cs
   0.6666666667    0.3333333333    0.6666666667 Cs
   0.6666666667    0.6666666667    0.0000000000 Cs
   0.6666666667    0.6666666667    0.3333333333 Cs
   0.6666666667    0.6666666667    0.6666666667 Cs
   0.1666745865    0.1661087306    0.1693111576 Cl
   0.1666666667    0.1666666667    0.5000000000 Cl
   0.1649013288    0.1719157587    0.8335502655 Cl
   0.1666666667    0.5000000000    0.1666666667 Cl
   0.1666666667    0.5000000000    0.5000000000 Cl
   0.1666666667    0.5000000000    0.8333333333 Cl
   0.1702748143    0.8339122178    0.1637963924 Cl
   0.1666666667    0.8333333333    0.5000000000 Cl
   0.1714664534    0.8300958368    0.8315170703 Cl
   0.5000000000    0.1666666667    0.1666666667 Cl
   0.5000000000    0.1666666667    0.5000000000 Cl
   0.5000000000    0.1666666667    0.8333333333 Cl
   0.5000000000    0.5000000000    0.1666666667 Cl
   0.5000000000    0.5000000000    0.5000000000 Cl
   0.5000000000    0.5000000000    0.8333333333 Cl
   0.5000000000    0.8333333333    0.1666666667 Cl
   0.5000000000    0.8333333333    0.5000000000 Cl
   0.5000000000    0.8333333333    0.8333333333 Cl
   0.8254200494    0.1592515786    0.1627021583 Cl
   0.8333333333    0.1666666667    0.5000000000 Cl
   0.8307538390    0.1661930866    0.8345152144 Cl
   0.8333333333    0.5000000000    0.1666666667 Cl
   0.8333333333    0.5000000000    0.5000000000 Cl
   0.8333333333    0.5000000000    0.8333333333 Cl
   0.8292723018    0.8284179739    0.1621534565 Cl
   0.8333333333    0.8333333333    0.5000000000 Cl
   0.8255594166    0.8408424574    0.8453975087 Cl
