Zn1 S1                                  
    1.000000000000000     
    -0.0000000000000000    2.6779880115165735    2.6779880115165735
     2.6779880115165735    0.0000000000000000    2.6779880115165735
     2.6779880115165735    2.6779880115165735   -0.0000000000000000
   Zn   S 
     1     1
Direct
     0.0000000000000000    0.0000000000000000    0.0000000000000000
     0.2500000000000000    0.2500000000000000    0.2500000000000000
 
  0.00000000E+00  0.00000000E+00  0.00000000E+00
  0.00000000E+00  0.00000000E+00  0.00000000E+00
