Zn1 S1
1.0
   0.0000000000    2.6936828773    2.6936828773
   2.6936828773    0.0000000000    2.6936828773
   2.6936828773    2.6936828773    0.0000000000
Zn S
1 1
direct
   0.0000000000    0.0000000000    0.0000000000 Zn
   0.2500000000    0.2500000000    0.2500000000 S
