Nd1 Zn95 O96                            
   1.00000000000000     
    12.9974900980000001    0.0000000000000000    0.0000000000000000
    -6.4987450490000001   11.2561566102999997    0.0000000000000000
     0.0000000000000000    0.0000000000000000   15.6316036913000005
   Zn   O    Nd
    95    96     1
Direct
     0.0833302079303399    0.1666298165895156    0.3336717964166216
     0.0831987973797944    0.1667334381235486    0.6658181754959358
     0.0845123427448167    0.4198657566242640    0.9996588317437265
     0.0832548356848610    0.4167865246165151    0.3337299088268683
     0.0832684142312616    0.4168138476597615    0.6666125970003582
     0.0834307829708820    0.6665363825484889    0.0000609749106069
     0.0832089296513757    0.6666046669863821    0.3335767880851920
     0.0832734086284057    0.6666520225900193    0.6666697248027835
     0.0825963392627366    0.9105663020055779    0.0001531776723551
     0.0831914068211218    0.9163697049809225    0.3338506335493037
     0.0831208205919986    0.9162105135344840    0.6663873832761900
     0.3380611190056731    0.1671688694728920    0.9998173740143790
     0.3336218039146236    0.1667959431285205    0.3338445840459530
     0.3337781836014494    0.1668845518280963    0.6663925623307768
     0.3430865218487865    0.4231679716440877    0.0015226699176283
     0.3335316674287973    0.4168146789752017    0.3337146922996898
     0.3336469309261339    0.4168758936365255    0.6666466210918465
     0.3333919562252667    0.6667062803026644    0.0000713221817184
     0.3333811399240682    0.6667260671442102    0.3335698964235406
     0.3333691834477602    0.6666910013978833    0.6667077027029366
     0.3334401217704722    0.9165761676674365    0.0000951503411169
     0.3333644006720938    0.9166299526022520    0.3335857809529094
     0.3333484800368955    0.9166352643966328    0.6666731235690101
     0.5832691005778005    0.1665947117956481    0.0000669788293377
     0.5834028896368763    0.1667754942831037    0.3335766280273927
     0.5833563278721323    0.1667249418438268    0.6666649667655250
     0.5838382357859885    0.4168038525488807    0.0001587268703336
     0.5834684388011696    0.4167431178162101    0.3335744772893603
     0.5834065850359978    0.4167253989181065    0.6666539723732949
     0.5831816873339096    0.6666584453146742    0.0000458423226741
     0.5833858159278107    0.6666275089528738    0.3335803766946523
     0.5833445065887523    0.6666282815958575    0.6666796842974274
     0.5832314436413880    0.9166404978939457    0.0000892648463607
     0.5832866398970648    0.9166344453389017    0.3335732038573838
     0.5832988340344989    0.9166356611920506    0.6666823760493171
     0.8282473671469402    0.1676638472629637    0.0006435660327068
     0.8332019116860484    0.1667290437704637    0.3337241006944492
     0.8331935752634836    0.1667305472592375    0.6665432016163158
     0.8331567004709662    0.4168948178618362    0.0001973522970875
     0.8332669699589802    0.4167369175018448    0.3335642589258587
     0.8332787432420595    0.4167322384883662    0.6666278911675726
     0.8330239146150069    0.6659688731836521    0.0002106605240150
     0.8332626927318525    0.6665421988455815    0.3335824773393062
     0.8332798208443990    0.6665851596389492    0.6666310138626362
     0.8267382943136854    0.9079224480853189    0.0011508674662748
     0.8331939176914754    0.9164731393964841    0.3337380277486949
     0.8331659546191783    0.9164082235838837    0.6665087902166360
     0.1708536376085882    0.0793037742642310    0.1714228871240109
     0.1667123878159110    0.0832607129405042    0.5000395590946459
     0.1681367096034345    0.0819740806090480    0.8262449187274253
     0.1690071734509782    0.3374786254559479    0.1701204181019765
     0.1667296341023170    0.3334041501424361    0.5000896489255959
     0.1685368063129988    0.3362996746495096    0.8295453758646297
     0.1669818400729856    0.5838952843295063    0.1670419531516793
     0.1666980466738029    0.5834215153422569    0.5001389618369155
     0.1668433572499412    0.5835798318835531    0.8332110271381400
     0.1670212428493275    0.8327974642224562    0.1670927649325408
     0.1666931734774284    0.8333193022885403    0.5001425555266625
     0.1668142715791972    0.8331931660391526    0.8332050437489289
     0.4171671467043293    0.0830053941960694    0.1670645996580600
     0.4166972040439086    0.0833089919323207    0.5001442124117579
     0.4168203356561646    0.0831819320388490    0.8332173829535852
     0.4174891351636352    0.3338257626288027    0.1673423681860609
     0.4167541108263253    0.3333639244203350    0.5001493902567526
     0.4169930964545623    0.3337201942881063    0.8329411553004001
     0.4169200043857644    0.5839012176606797    0.1671175702549247
     0.4167298337200592    0.5834059348916580    0.5001517420690531
     0.4166423455752813    0.5833837403998366    0.8332571609510271
     0.4166589248651599    0.8333061395509189    0.1669483964843143
     0.4166717786857129    0.8333477585249534    0.5001481942718834
     0.4166609750715140    0.8332936777425261    0.8332432359605620
     0.6661004734510247    0.0830408907346784    0.1670846569637387
     0.6665898358334936    0.0832982640759134    0.5001326521265729
     0.6663410252091099    0.0831636391264739    0.8332219537257142
     0.6666786330039598    0.3333575366254691    0.1670096904724251
     0.6666523805252039    0.3333411644343392    0.5001345413699292
     0.6666382570830494    0.3333342197083935    0.8332441061118246
     0.6666780949861005    0.5832986997487133    0.1670261220586838
     0.6666853326890305    0.5833339384104983    0.5001424859159570
     0.6666265989860817    0.5833095010461113    0.8332257642947358
     0.6659703569867729    0.8329899524940347    0.1671478450116443
     0.6666263896260107    0.8333014380878622    0.5001391357410643
     0.6663430676809671    0.8331580761008787    0.8332148848596972
     0.9120789909342660    0.0809905965891823    0.1705032986844444
     0.9165754346584276    0.0832591823399121    0.5000802075821236
     0.9134275702148885    0.0816772143756157    0.8302405769001593
     0.9162714658814947    0.3337455085104446    0.1673058301629555
     0.9166160909295223    0.3333616790313310    0.5001226294272976
     0.9164925397834727    0.3336233037860264    0.8327369758121457
     0.9166539449492248    0.5833160035641332    0.1670220542820668
     0.9166569217323292    0.5833565669481926    0.5001322073895117
     0.9166888425538676    0.5833368903960020    0.8332318978988738
     0.9161806638682713    0.8324018559961210    0.1674420001974796
     0.9166388292194770    0.8332619170505174    0.5001348212713355
     0.9164290988235175    0.8328274628283192    0.8327453154214759
     0.0840086178267127    0.1656629128880530    0.1414301435646309
     0.0833519937393469    0.1666803206533423    0.4604300805205789
     0.0824925040346775    0.1664084767718060    0.7967319302421100
     0.0835022536828858    0.4147888710013159    0.1262267930569481
     0.0833728393919352    0.4166265742913838    0.4604482181273720
     0.0830757363877675    0.4164846296812327    0.7940548391365825
     0.0833697762799654    0.6666693582183735    0.1271175911920486
     0.0833914167044320    0.6666829669707793    0.4604516271015769
     0.0833393173572792    0.6667266574881261    0.7940002026840881
     0.0832724540327491    0.9176614225459371    0.1260742622405698
     0.0833791771856454    0.9167577793002811    0.4604602178420483
     0.0827474534966165    0.9159038232202591    0.7935461015203329
     0.3322316624831720    0.1665949054839712    0.1260018035210363
     0.3332576853245362    0.1666413171665464    0.4604602571900143
     0.3339873546577194    0.1671619038042263    0.7936145048426937
     0.3323197485593078    0.4154566039093149    0.1272195694607123
     0.3332366056406489    0.4166165141936276    0.4604333038364984
     0.3340366163675498    0.4167913237003270    0.7934728810963227
     0.3332648621887611    0.6665030332291245    0.1271533964479233
     0.3333154000508816    0.6666550615160880    0.4604536686632505
     0.3333555240397168    0.6666930900418335    0.7939788663339310
     0.3331979881471189    0.9167968566557474    0.1271321935647498
     0.3333343891326149    0.9166765158603628    0.4604476916838455
     0.3332756217246161    0.9167375107719757    0.7940157325440066
     0.5833324017092210    0.1666298317505902    0.1271178728244549
     0.5833038512211757    0.1666197681097735    0.4604554933703418
     0.5832943495865310    0.1666455570881744    0.7939999977818696
     0.5830891957050430    0.4165470291705025    0.1270545007464713
     0.5832704135305281    0.4166324034580134    0.4604598145971481
     0.5832545189433894    0.4166144645405342    0.7940308095019395
     0.5833425433482394    0.6666983751122308    0.1271080234409864
     0.5832917780289337    0.6666831977843897    0.4604612245685351
     0.5833932573338443    0.6667253300618067    0.7939907410717228
     0.5835533054606630    0.9167617076731825    0.1271126883224966
     0.5833275242923593    0.9166747074740147    0.4604599077133986
     0.5833958515477689    0.9166948731811577    0.7940069205028416
     0.8349814432182168    0.1666433812315485    0.1266933784977621
     0.8333801007518286    0.1666491683584770    0.4604490396750286
     0.8335421917756624    0.1667212420385033    0.7941680232648195
     0.8334392623468047    0.4165566146883020    0.1270239004927813
     0.8333607150540442    0.4166318536999647    0.4604626218214509
     0.8333550361300095    0.4166194174938522    0.7940281543005346
     0.8334790087378746    0.6669625850429868    0.1270128326223879
     0.8333537733460133    0.6667089619533408    0.4604632013500449
     0.8333988258227788    0.6668160579632761    0.7940664483517025
     0.8347262217504744    0.9178233369763106    0.1268715223830360
     0.8333781551560552    0.9167610861111505    0.4604401209659785
     0.8335709185514745    0.9166636654385998    0.7940989670744727
     0.1669271170955340    0.0830990808234614    0.2945234222494980
     0.1665622464963553    0.0834620811564537    0.6276635103284767
     0.1746880847411321    0.0736798209624462    0.9546814191406499
     0.1667034133720601    0.3334391939753278    0.2940580200223468
     0.1665359776418990    0.3330708631912729    0.6275293319123953
     0.1773435696251134    0.3479186443467840    0.9562477165754627
     0.1666173420598518    0.5831661675635855    0.2936270470977458
     0.1666462524122060    0.5832624540705927    0.6273179878848866
     0.1667073386967357    0.5834608266140013    0.9605413821269662
     0.1666215559887167    0.8334645616816853    0.2935861751196049
     0.1666735132556574    0.8333828819742627    0.6273152674457324
     0.1666863514741763    0.8328183461798238    0.9605365705295891
     0.4165354694908001    0.0833931092050011    0.2935929138641006
     0.4166181115643503    0.0833419787180089    0.6273238253191031
     0.4169307170634747    0.0832687012047217    0.9605330692999179
     0.4164649573571023    0.3331704237047917    0.2935904977945891
     0.4166007307721990    0.3332644546596639    0.6273077240807552
     0.4161695040390634    0.3320260093256736    0.9606933550317616
     0.4165751216140261    0.5832040368049610    0.2936621495182467
     0.4166396177984322    0.5833113945136693    0.6272781263867219
     0.4181189813838832    0.5851270410342247    0.9604129886296273
     0.4166611197515654    0.8333285185438888    0.2937302362826556
     0.4166694447158791    0.8333359182897819    0.6272945616015622
     0.4166863444081252    0.8333765923234612    0.9605318692863529
     0.6668031867933982    0.0833758698141094    0.2936350541003149
     0.6667381680114025    0.0833606842371284    0.6273337552439990
     0.6658905631247632    0.0832296342606202    0.9604882910889179
     0.6666501183385657    0.3332997189036806    0.2937281487722367
     0.6666667272744059    0.3333161046278440    0.6273029395356459
     0.6667922794161968    0.3332968533465942    0.9605369387777518
     0.6666425500897188    0.5833376376687673    0.2937240757859778
     0.6666628608121561    0.5833289287567678    0.6273041126833275
     0.6666859462039751    0.5833839463764935    0.9605629534931626
     0.6667962560955173    0.8334218818524953    0.2936286468146554
     0.6667291477724917    0.8333792428997119    0.6273316590145822
     0.6656031543671855    0.8323899505071851    0.9604663454947333
     0.9165319825100486    0.0832812276131523    0.2940150879581671
     0.9168949743350225    0.0834440410140998    0.6275490576294265
     0.8980586891218262    0.0732709483644100    0.9571897490336791
     0.9167766889872351    0.3332731475260494    0.2936246229738189
     0.9167004234163604    0.3332881178697957    0.6273603058361411
     0.9181758904626839    0.3323423683865254    0.9607646226199377
     0.9166981614658671    0.5833403152607353    0.2937258809366068
     0.9166769480634378    0.5833257235863272    0.6273061793052445
     0.9166823873164828    0.5833377778961321    0.9605347888324549
     0.9168244661999634    0.8335379602918368    0.2935634699820494
     0.9166978997671218    0.8334126250615267    0.6273519020251186
     0.9176003460576090    0.8347020254761870    0.9607280557807725
     0.0825424517166567    0.1645108816896602    0.9998495123170449
 
  0.00000000E+00  0.00000000E+00  0.00000000E+00
  0.00000000E+00  0.00000000E+00  0.00000000E+00
  0.00000000E+00  0.00000000E+00  0.00000000E+00
  0.00000000E+00  0.00000000E+00  0.00000000E+00
  0.00000000E+00  0.00000000E+00  0.00000000E+00
  0.00000000E+00  0.00000000E+00  0.00000000E+00
  0.00000000E+00  0.00000000E+00  0.00000000E+00
  0.00000000E+00  0.00000000E+00  0.00000000E+00
  0.00000000E+00  0.00000000E+00  0.00000000E+00
  0.00000000E+00  0.00000000E+00  0.00000000E+00
  0.00000000E+00  0.00000000E+00  0.00000000E+00
  0.00000000E+00  0.00000000E+00  0.00000000E+00
  0.00000000E+00  0.00000000E+00  0.00000000E+00
  0.00000000E+00  0.00000000E+00  0.00000000E+00
  0.00000000E+00  0.00000000E+00  0.00000000E+00
  0.00000000E+00  0.00000000E+00  0.00000000E+00
  0.00000000E+00  0.00000000E+00  0.00000000E+00
  0.00000000E+00  0.00000000E+00  0.00000000E+00
  0.00000000E+00  0.00000000E+00  0.00000000E+00
  0.00000000E+00  0.00000000E+00  0.00000000E+00
  0.00000000E+00  0.00000000E+00  0.00000000E+00
  0.00000000E+00  0.00000000E+00  0.00000000E+00
  0.00000000E+00  0.00000000E+00  0.00000000E+00
  0.00000000E+00  0.00000000E+00  0.00000000E+00
  0.00000000E+00  0.00000000E+00  0.00000000E+00
  0.00000000E+00  0.00000000E+00  0.00000000E+00
  0.00000000E+00  0.00000000E+00  0.00000000E+00
  0.00000000E+00  0.00000000E+00  0.00000000E+00
  0.00000000E+00  0.00000000E+00  0.00000000E+00
  0.00000000E+00  0.00000000E+00  0.00000000E+00
  0.00000000E+00  0.00000000E+00  0.00000000E+00
  0.00000000E+00  0.00000000E+00  0.00000000E+00
  0.00000000E+00  0.00000000E+00  0.00000000E+00
  0.00000000E+00  0.00000000E+00  0.00000000E+00
  0.00000000E+00  0.00000000E+00  0.00000000E+00
  0.00000000E+00  0.00000000E+00  0.00000000E+00
  0.00000000E+00  0.00000000E+00  0.00000000E+00
  0.00000000E+00  0.00000000E+00  0.00000000E+00
  0.00000000E+00  0.00000000E+00  0.00000000E+00
  0.00000000E+00  0.00000000E+00  0.00000000E+00
  0.00000000E+00  0.00000000E+00  0.00000000E+00
  0.00000000E+00  0.00000000E+00  0.00000000E+00
  0.00000000E+00  0.00000000E+00  0.00000000E+00
  0.00000000E+00  0.00000000E+00  0.00000000E+00
  0.00000000E+00  0.00000000E+00  0.00000000E+00
  0.00000000E+00  0.00000000E+00  0.00000000E+00
  0.00000000E+00  0.00000000E+00  0.00000000E+00
  0.00000000E+00  0.00000000E+00  0.00000000E+00
  0.00000000E+00  0.00000000E+00  0.00000000E+00
  0.00000000E+00  0.00000000E+00  0.00000000E+00
  0.00000000E+00  0.00000000E+00  0.00000000E+00
  0.00000000E+00  0.00000000E+00  0.00000000E+00
  0.00000000E+00  0.00000000E+00  0.00000000E+00
  0.00000000E+00  0.00000000E+00  0.00000000E+00
  0.00000000E+00  0.00000000E+00  0.00000000E+00
  0.00000000E+00  0.00000000E+00  0.00000000E+00
  0.00000000E+00  0.00000000E+00  0.00000000E+00
  0.00000000E+00  0.00000000E+00  0.00000000E+00
  0.00000000E+00  0.00000000E+00  0.00000000E+00
  0.00000000E+00  0.00000000E+00  0.00000000E+00
  0.00000000E+00  0.00000000E+00  0.00000000E+00
  0.00000000E+00  0.00000000E+00  0.00000000E+00
  0.00000000E+00  0.00000000E+00  0.00000000E+00
  0.00000000E+00  0.00000000E+00  0.00000000E+00
  0.00000000E+00  0.00000000E+00  0.00000000E+00
  0.00000000E+00  0.00000000E+00  0.00000000E+00
  0.00000000E+00  0.00000000E+00  0.00000000E+00
  0.00000000E+00  0.00000000E+00  0.00000000E+00
  0.00000000E+00  0.00000000E+00  0.00000000E+00
  0.00000000E+00  0.00000000E+00  0.00000000E+00
  0.00000000E+00  0.00000000E+00  0.00000000E+00
  0.00000000E+00  0.00000000E+00  0.00000000E+00
  0.00000000E+00  0.00000000E+00  0.00000000E+00
  0.00000000E+00  0.00000000E+00  0.00000000E+00
  0.00000000E+00  0.00000000E+00  0.00000000E+00
  0.00000000E+00  0.00000000E+00  0.00000000E+00
  0.00000000E+00  0.00000000E+00  0.00000000E+00
  0.00000000E+00  0.00000000E+00  0.00000000E+00
  0.00000000E+00  0.00000000E+00  0.00000000E+00
  0.00000000E+00  0.00000000E+00  0.00000000E+00
  0.00000000E+00  0.00000000E+00  0.00000000E+00
  0.00000000E+00  0.00000000E+00  0.00000000E+00
  0.00000000E+00  0.00000000E+00  0.00000000E+00
  0.00000000E+00  0.00000000E+00  0.00000000E+00
  0.00000000E+00  0.00000000E+00  0.00000000E+00
  0.00000000E+00  0.00000000E+00  0.00000000E+00
  0.00000000E+00  0.00000000E+00  0.00000000E+00
  0.00000000E+00  0.00000000E+00  0.00000000E+00
  0.00000000E+00  0.00000000E+00  0.00000000E+00
  0.00000000E+00  0.00000000E+00  0.00000000E+00
  0.00000000E+00  0.00000000E+00  0.00000000E+00
  0.00000000E+00  0.00000000E+00  0.00000000E+00
  0.00000000E+00  0.00000000E+00  0.00000000E+00
  0.00000000E+00  0.00000000E+00  0.00000000E+00
  0.00000000E+00  0.00000000E+00  0.00000000E+00
  0.00000000E+00  0.00000000E+00  0.00000000E+00
  0.00000000E+00  0.00000000E+00  0.00000000E+00
  0.00000000E+00  0.00000000E+00  0.00000000E+00
  0.00000000E+00  0.00000000E+00  0.00000000E+00
  0.00000000E+00  0.00000000E+00  0.00000000E+00
  0.00000000E+00  0.00000000E+00  0.00000000E+00
  0.00000000E+00  0.00000000E+00  0.00000000E+00
  0.00000000E+00  0.00000000E+00  0.00000000E+00
  0.00000000E+00  0.00000000E+00  0.00000000E+00
  0.00000000E+00  0.00000000E+00  0.00000000E+00
  0.00000000E+00  0.00000000E+00  0.00000000E+00
  0.00000000E+00  0.00000000E+00  0.00000000E+00
  0.00000000E+00  0.00000000E+00  0.00000000E+00
  0.00000000E+00  0.00000000E+00  0.00000000E+00
  0.00000000E+00  0.00000000E+00  0.00000000E+00
  0.00000000E+00  0.00000000E+00  0.00000000E+00
  0.00000000E+00  0.00000000E+00  0.00000000E+00
  0.00000000E+00  0.00000000E+00  0.00000000E+00
  0.00000000E+00  0.00000000E+00  0.00000000E+00
  0.00000000E+00  0.00000000E+00  0.00000000E+00
  0.00000000E+00  0.00000000E+00  0.00000000E+00
  0.00000000E+00  0.00000000E+00  0.00000000E+00
  0.00000000E+00  0.00000000E+00  0.00000000E+00
  0.00000000E+00  0.00000000E+00  0.00000000E+00
  0.00000000E+00  0.00000000E+00  0.00000000E+00
  0.00000000E+00  0.00000000E+00  0.00000000E+00
  0.00000000E+00  0.00000000E+00  0.00000000E+00
  0.00000000E+00  0.00000000E+00  0.00000000E+00
  0.00000000E+00  0.00000000E+00  0.00000000E+00
  0.00000000E+00  0.00000000E+00  0.00000000E+00
  0.00000000E+00  0.00000000E+00  0.00000000E+00
  0.00000000E+00  0.00000000E+00  0.00000000E+00
  0.00000000E+00  0.00000000E+00  0.00000000E+00
  0.00000000E+00  0.00000000E+00  0.00000000E+00
  0.00000000E+00  0.00000000E+00  0.00000000E+00
  0.00000000E+00  0.00000000E+00  0.00000000E+00
  0.00000000E+00  0.00000000E+00  0.00000000E+00
  0.00000000E+00  0.00000000E+00  0.00000000E+00
  0.00000000E+00  0.00000000E+00  0.00000000E+00
  0.00000000E+00  0.00000000E+00  0.00000000E+00
  0.00000000E+00  0.00000000E+00  0.00000000E+00
  0.00000000E+00  0.00000000E+00  0.00000000E+00
  0.00000000E+00  0.00000000E+00  0.00000000E+00
  0.00000000E+00  0.00000000E+00  0.00000000E+00
  0.00000000E+00  0.00000000E+00  0.00000000E+00
  0.00000000E+00  0.00000000E+00  0.00000000E+00
  0.00000000E+00  0.00000000E+00  0.00000000E+00
  0.00000000E+00  0.00000000E+00  0.00000000E+00
  0.00000000E+00  0.00000000E+00  0.00000000E+00
  0.00000000E+00  0.00000000E+00  0.00000000E+00
  0.00000000E+00  0.00000000E+00  0.00000000E+00
  0.00000000E+00  0.00000000E+00  0.00000000E+00
  0.00000000E+00  0.00000000E+00  0.00000000E+00
  0.00000000E+00  0.00000000E+00  0.00000000E+00
  0.00000000E+00  0.00000000E+00  0.00000000E+00
  0.00000000E+00  0.00000000E+00  0.00000000E+00
  0.00000000E+00  0.00000000E+00  0.00000000E+00
  0.00000000E+00  0.00000000E+00  0.00000000E+00
  0.00000000E+00  0.00000000E+00  0.00000000E+00
  0.00000000E+00  0.00000000E+00  0.00000000E+00
  0.00000000E+00  0.00000000E+00  0.00000000E+00
  0.00000000E+00  0.00000000E+00  0.00000000E+00
  0.00000000E+00  0.00000000E+00  0.00000000E+00
  0.00000000E+00  0.00000000E+00  0.00000000E+00
  0.00000000E+00  0.00000000E+00  0.00000000E+00
  0.00000000E+00  0.00000000E+00  0.00000000E+00
  0.00000000E+00  0.00000000E+00  0.00000000E+00
  0.00000000E+00  0.00000000E+00  0.00000000E+00
  0.00000000E+00  0.00000000E+00  0.00000000E+00
  0.00000000E+00  0.00000000E+00  0.00000000E+00
  0.00000000E+00  0.00000000E+00  0.00000000E+00
  0.00000000E+00  0.00000000E+00  0.00000000E+00
  0.00000000E+00  0.00000000E+00  0.00000000E+00
  0.00000000E+00  0.00000000E+00  0.00000000E+00
  0.00000000E+00  0.00000000E+00  0.00000000E+00
  0.00000000E+00  0.00000000E+00  0.00000000E+00
  0.00000000E+00  0.00000000E+00  0.00000000E+00
  0.00000000E+00  0.00000000E+00  0.00000000E+00
  0.00000000E+00  0.00000000E+00  0.00000000E+00
  0.00000000E+00  0.00000000E+00  0.00000000E+00
  0.00000000E+00  0.00000000E+00  0.00000000E+00
  0.00000000E+00  0.00000000E+00  0.00000000E+00
  0.00000000E+00  0.00000000E+00  0.00000000E+00
  0.00000000E+00  0.00000000E+00  0.00000000E+00
  0.00000000E+00  0.00000000E+00  0.00000000E+00
  0.00000000E+00  0.00000000E+00  0.00000000E+00
  0.00000000E+00  0.00000000E+00  0.00000000E+00
  0.00000000E+00  0.00000000E+00  0.00000000E+00
  0.00000000E+00  0.00000000E+00  0.00000000E+00
  0.00000000E+00  0.00000000E+00  0.00000000E+00
  0.00000000E+00  0.00000000E+00  0.00000000E+00
  0.00000000E+00  0.00000000E+00  0.00000000E+00
  0.00000000E+00  0.00000000E+00  0.00000000E+00
  0.00000000E+00  0.00000000E+00  0.00000000E+00
  0.00000000E+00  0.00000000E+00  0.00000000E+00
  0.00000000E+00  0.00000000E+00  0.00000000E+00
  0.00000000E+00  0.00000000E+00  0.00000000E+00
