Na1 Zn54 O54                            
    1.000000000000000     
     9.7481175735000001    0.0000000000000000    0.0000000000000000
    -4.8740587867000000    8.4421174577000002    0.0000000000000000
     0.0000000000000000    0.0000000000000000   15.6316036913000005
   Zn   O    Na
    54    54     1
Direct
     0.1107100783457787    0.2214202652865507    0.0008878828970309
     0.1150795066687440    0.2299066660881827    0.3383805867408581
     0.1111069521694761    0.2221341885762081    0.6677636817596532
     0.1111031909255702    0.5553980990022876    0.9997220261413300
     0.1105443662893220    0.5545193461163591    0.3342155877034987
     0.1111482827594404    0.5554886060851526    0.6674992711046013
     0.1108713110465092    0.8886582916114145    0.0008872338493112
     0.1146056862868706    0.8832327969316538    0.3384170683549390
     0.1110399818738664    0.8886660508108772    0.6678086556173568
     0.4477181706058930    0.2238057941456576    0.9949519072347657
     0.4436435625129330    0.2212362775722360    0.3344174126958958
     0.4444303362333684    0.2221790752619013    0.6670425468557780
     0.4442320510168102    0.5553854515452488    0.9997062631011128
     0.4437828424112931    0.5546111608497540    0.3341187276935922
     0.4444176825215121    0.5555483648437884    0.6674694446144883
     0.4443358438091085    0.8887979887152603    0.9997595268263617
     0.4438020743935883    0.8884353279101324    0.3341790020444570
     0.4443706765831106    0.8888246574812757    0.6674775422162557
     0.7759593529917272    0.2238536717847985    0.9949839796808744
     0.7775271778627909    0.2214565980597038    0.3344070830302983
     0.7778274662529641    0.2222542620859391    0.6669708112401891
     0.7759190899805303    0.5519364820934155    0.9949630971187452
     0.7773237156973672    0.5550200859629461    0.3344668538510182
     0.7776880416939675    0.5554658112403456    0.6670270014872761
     0.7778241458301974    0.8887452789659465    0.0008757700920537
     0.7679536548042917    0.8836182597054375    0.3383206767399097
     0.7775959883611921    0.8888487453866519    0.6677748199442654
     0.2469847440131603    0.1224021822147130    0.1592845561691314
     0.2227283270548721    0.1109200805574718    0.5020800758920410
     0.2216225508664403    0.1107301176787859    0.8339427617683057
     0.2210970722988609    0.4422097387410533    0.1666790192239558
     0.2229144703385106    0.4455593609355820    0.5019105878523192
     0.2219301451266154    0.4438688518805462    0.8339506622813025
     0.2212154705407099    0.7771014661445905    0.1668030048537033
     0.2228193377568514    0.7766384838139611    0.5019314988642328
     0.2220504168831692    0.7778413183518424    0.8338976860008677
     0.5543373272949942    0.1087470376581454    0.1675914867426786
     0.5555730359551011    0.1109766290337364    0.5006685616510071
     0.5550218326268440    0.1100371944407205    0.8313515444772773
     0.5539556611183568    0.4444812155132997    0.1676313950420378
     0.5553816223755781    0.4442317822131006    0.5006351635341625
     0.5549923128609968    0.4449457368939376    0.8313079158556267
     0.5556093117049911    0.7773179293748860    0.1666637162647559
     0.5537079048468216    0.7768350322116727    0.5018724230676460
     0.5558263730668267    0.7778788133454940    0.8340040932236545
     0.8756111082486935    0.1227451553505360    0.1592813137751193
     0.8884526914818900    0.1111611845648963    0.5019397080781381
     0.8890475457222842    0.1107774282911323    0.8340042507430966
     0.8903461110990639    0.4446741690838173    0.1676222203507527
     0.8888247768840369    0.4443656841161746    0.5006802602433373
     0.8899681819004326    0.4449504874812420    0.8313425994957246
     0.8754136267294921    0.7513955501165491    0.1591252720704839
     0.8881776206465004    0.7769161901203124    0.5020555949929700
     0.8890980026941258    0.7783084087607708    0.8339496389168979
     0.1073174815982861    0.2145680314291014    0.1302500833790634
     0.1112279809949914    0.2221727937074235    0.4628175108149564
     0.1108443604783103    0.2218195340094571    0.7947114624806981
     0.1107353679574915    0.5545771262330158    0.1271034686237029
     0.1111326643799115    0.5552289425403319    0.4610351470955343
     0.1124154745238002    0.5560886716508606    0.7941673550311591
     0.1071830982174171    0.8907853502492910    0.1302007707653132
     0.1109652926713623    0.8882364708219268    0.4628323079445038
     0.1109583729384107    0.8888902121282839    0.7947264636505684
     0.4573442456584215    0.2281518322209032    0.1219719137270004
     0.4437598275347858    0.2216605831014429    0.4609277315066695
     0.4435249200887816    0.2217441587482586    0.7940153600457136
     0.4438093292541818    0.5547519553183372    0.1270897459503387
     0.4442697130900485    0.5554297339260902    0.4609378593283049
     0.4436997772469300    0.5561613168029828    0.7941692827828268
     0.4438855036490286    0.8882741545441923    0.1271130125061871
     0.4441847691670304    0.8886715441357491    0.4609587542228876
     0.4438178693122730    0.8875700372117814    0.7941549159580976
     0.7707680922348904    0.2282225777817209    0.1219896927994440
     0.7780224654523690    0.2218600124714091    0.4609017559494597
     0.7782023917416571    0.2217632045608424    0.7939788557222293
     0.7703266393379529    0.5410331294590797    0.1219431349215746
     0.7778408671646019    0.5558220576658731    0.4609618181403504
     0.7781865880272427    0.5563851712992817    0.7939968016365833
     0.7834447812911012    0.8911579357833073    0.1302187204150450
     0.7770835254528606    0.8884685638630463    0.4627755360318631
     0.7778602455579922    0.8889669746141037    0.7947186179722990
     0.2210346948877024    0.1097791869495544    0.2919758595830629
     0.2220188838967844    0.1108234838535243    0.6284505746014241
     0.2221657692918653    0.1107592897963907    0.9617434532081788
     0.2223820915629499    0.4449552339752926    0.2937358861125990
     0.2221829913321717    0.4443162639800776    0.6283145015657186
     0.2214259775588419    0.4429233626293181    0.9613467126762297
     0.2224173408360811    0.7761394163183786    0.2938010168770132
     0.2221482778043397    0.7776519481354365    0.6283094251335107
     0.2216670048475360    0.7780217126603578    0.9612886925681327
     0.5552524746681249    0.1106146502384452    0.2938786270325082
     0.5555158576024832    0.1110130194194241    0.6277007653094734
     0.5544581118061181    0.1090222592889877    0.9579206406929353
     0.5550475331908818    0.4435483830630138    0.2939029381306987
     0.5554515017546773    0.4443903997367806    0.6276899057792775
     0.5544632381123968    0.4452780335506683    0.9578864980018150
     0.5531248233242565    0.7761888229192290    0.2936585554637418
     0.5554625894795391    0.7777207100503912    0.6282504972781210
     0.5563431941841841    0.7781054858580744    0.9613617562051167
     0.8886470382840885    0.1099310655139067    0.2920690566415096
     0.8889646555071149    0.1109775414364289    0.6283362884240158
     0.8885932453947923    0.1108672212081975    0.9617894879148674
     0.8883044721183965    0.4436913492808091    0.2938965146007793
     0.8890025770377731    0.4445274500998865    0.6277122202425177
     0.8907785411462873    0.4453304960613636    0.9579187543242043
     0.8884330098303465    0.7773763748052034    0.2920943675476012
     0.8888850059636897    0.7778943410997031    0.6284253454484453
     0.8887152111062219    0.7774715896839782    0.9617484230937587
     0.9991730054837957    0.9986378006010028    0.2257020657732584
 
  0.00000000E+00  0.00000000E+00  0.00000000E+00
  0.00000000E+00  0.00000000E+00  0.00000000E+00
  0.00000000E+00  0.00000000E+00  0.00000000E+00
  0.00000000E+00  0.00000000E+00  0.00000000E+00
  0.00000000E+00  0.00000000E+00  0.00000000E+00
  0.00000000E+00  0.00000000E+00  0.00000000E+00
  0.00000000E+00  0.00000000E+00  0.00000000E+00
  0.00000000E+00  0.00000000E+00  0.00000000E+00
  0.00000000E+00  0.00000000E+00  0.00000000E+00
  0.00000000E+00  0.00000000E+00  0.00000000E+00
  0.00000000E+00  0.00000000E+00  0.00000000E+00
  0.00000000E+00  0.00000000E+00  0.00000000E+00
  0.00000000E+00  0.00000000E+00  0.00000000E+00
  0.00000000E+00  0.00000000E+00  0.00000000E+00
  0.00000000E+00  0.00000000E+00  0.00000000E+00
  0.00000000E+00  0.00000000E+00  0.00000000E+00
  0.00000000E+00  0.00000000E+00  0.00000000E+00
  0.00000000E+00  0.00000000E+00  0.00000000E+00
  0.00000000E+00  0.00000000E+00  0.00000000E+00
  0.00000000E+00  0.00000000E+00  0.00000000E+00
  0.00000000E+00  0.00000000E+00  0.00000000E+00
  0.00000000E+00  0.00000000E+00  0.00000000E+00
  0.00000000E+00  0.00000000E+00  0.00000000E+00
  0.00000000E+00  0.00000000E+00  0.00000000E+00
  0.00000000E+00  0.00000000E+00  0.00000000E+00
  0.00000000E+00  0.00000000E+00  0.00000000E+00
  0.00000000E+00  0.00000000E+00  0.00000000E+00
  0.00000000E+00  0.00000000E+00  0.00000000E+00
  0.00000000E+00  0.00000000E+00  0.00000000E+00
  0.00000000E+00  0.00000000E+00  0.00000000E+00
  0.00000000E+00  0.00000000E+00  0.00000000E+00
  0.00000000E+00  0.00000000E+00  0.00000000E+00
  0.00000000E+00  0.00000000E+00  0.00000000E+00
  0.00000000E+00  0.00000000E+00  0.00000000E+00
  0.00000000E+00  0.00000000E+00  0.00000000E+00
  0.00000000E+00  0.00000000E+00  0.00000000E+00
  0.00000000E+00  0.00000000E+00  0.00000000E+00
  0.00000000E+00  0.00000000E+00  0.00000000E+00
  0.00000000E+00  0.00000000E+00  0.00000000E+00
  0.00000000E+00  0.00000000E+00  0.00000000E+00
  0.00000000E+00  0.00000000E+00  0.00000000E+00
  0.00000000E+00  0.00000000E+00  0.00000000E+00
  0.00000000E+00  0.00000000E+00  0.00000000E+00
  0.00000000E+00  0.00000000E+00  0.00000000E+00
  0.00000000E+00  0.00000000E+00  0.00000000E+00
  0.00000000E+00  0.00000000E+00  0.00000000E+00
  0.00000000E+00  0.00000000E+00  0.00000000E+00
  0.00000000E+00  0.00000000E+00  0.00000000E+00
  0.00000000E+00  0.00000000E+00  0.00000000E+00
  0.00000000E+00  0.00000000E+00  0.00000000E+00
  0.00000000E+00  0.00000000E+00  0.00000000E+00
  0.00000000E+00  0.00000000E+00  0.00000000E+00
  0.00000000E+00  0.00000000E+00  0.00000000E+00
  0.00000000E+00  0.00000000E+00  0.00000000E+00
  0.00000000E+00  0.00000000E+00  0.00000000E+00
  0.00000000E+00  0.00000000E+00  0.00000000E+00
  0.00000000E+00  0.00000000E+00  0.00000000E+00
  0.00000000E+00  0.00000000E+00  0.00000000E+00
  0.00000000E+00  0.00000000E+00  0.00000000E+00
  0.00000000E+00  0.00000000E+00  0.00000000E+00
  0.00000000E+00  0.00000000E+00  0.00000000E+00
  0.00000000E+00  0.00000000E+00  0.00000000E+00
  0.00000000E+00  0.00000000E+00  0.00000000E+00
  0.00000000E+00  0.00000000E+00  0.00000000E+00
  0.00000000E+00  0.00000000E+00  0.00000000E+00
  0.00000000E+00  0.00000000E+00  0.00000000E+00
  0.00000000E+00  0.00000000E+00  0.00000000E+00
  0.00000000E+00  0.00000000E+00  0.00000000E+00
  0.00000000E+00  0.00000000E+00  0.00000000E+00
  0.00000000E+00  0.00000000E+00  0.00000000E+00
  0.00000000E+00  0.00000000E+00  0.00000000E+00
  0.00000000E+00  0.00000000E+00  0.00000000E+00
  0.00000000E+00  0.00000000E+00  0.00000000E+00
  0.00000000E+00  0.00000000E+00  0.00000000E+00
  0.00000000E+00  0.00000000E+00  0.00000000E+00
  0.00000000E+00  0.00000000E+00  0.00000000E+00
  0.00000000E+00  0.00000000E+00  0.00000000E+00
  0.00000000E+00  0.00000000E+00  0.00000000E+00
  0.00000000E+00  0.00000000E+00  0.00000000E+00
  0.00000000E+00  0.00000000E+00  0.00000000E+00
  0.00000000E+00  0.00000000E+00  0.00000000E+00
  0.00000000E+00  0.00000000E+00  0.00000000E+00
  0.00000000E+00  0.00000000E+00  0.00000000E+00
  0.00000000E+00  0.00000000E+00  0.00000000E+00
  0.00000000E+00  0.00000000E+00  0.00000000E+00
  0.00000000E+00  0.00000000E+00  0.00000000E+00
  0.00000000E+00  0.00000000E+00  0.00000000E+00
  0.00000000E+00  0.00000000E+00  0.00000000E+00
  0.00000000E+00  0.00000000E+00  0.00000000E+00
  0.00000000E+00  0.00000000E+00  0.00000000E+00
  0.00000000E+00  0.00000000E+00  0.00000000E+00
  0.00000000E+00  0.00000000E+00  0.00000000E+00
  0.00000000E+00  0.00000000E+00  0.00000000E+00
  0.00000000E+00  0.00000000E+00  0.00000000E+00
  0.00000000E+00  0.00000000E+00  0.00000000E+00
  0.00000000E+00  0.00000000E+00  0.00000000E+00
  0.00000000E+00  0.00000000E+00  0.00000000E+00
  0.00000000E+00  0.00000000E+00  0.00000000E+00
  0.00000000E+00  0.00000000E+00  0.00000000E+00
  0.00000000E+00  0.00000000E+00  0.00000000E+00
  0.00000000E+00  0.00000000E+00  0.00000000E+00
  0.00000000E+00  0.00000000E+00  0.00000000E+00
  0.00000000E+00  0.00000000E+00  0.00000000E+00
  0.00000000E+00  0.00000000E+00  0.00000000E+00
  0.00000000E+00  0.00000000E+00  0.00000000E+00
  0.00000000E+00  0.00000000E+00  0.00000000E+00
  0.00000000E+00  0.00000000E+00  0.00000000E+00
  0.00000000E+00  0.00000000E+00  0.00000000E+00
  0.00000000E+00  0.00000000E+00  0.00000000E+00
