Cs8                                     
    1.000000000000000     
     5.8779576852056978   -5.8919783233691376   -0.0000000000000000
     5.8779576852056978    5.8919783233691376    0.0000000000000000
     0.0000000000000000   -0.0000000000000000   12.5414036027603881
   Cs
     8
Direct
     0.2499552094289270    0.7500447905710731    0.2500005715816344
     0.2497362705578031    0.2497362705578031    0.0000000000000000
     0.7497362705578030    0.7497362705578030    0.5000000000000000
     0.7500447905710731    0.2499552094289270    0.7499994284183660
     0.2500447905710731    0.7499552094289269    0.7500005715816340
     0.7502637294421970    0.7502637294421970    0.0000000000000000
     0.7499552094289269    0.2500447905710731    0.2499994284183656
     0.2502637294421969    0.2502637294421969    0.5000000000000000
 
  0.00000000E+00  0.00000000E+00  0.00000000E+00
  0.00000000E+00  0.00000000E+00  0.00000000E+00
  0.00000000E+00  0.00000000E+00  0.00000000E+00
  0.00000000E+00  0.00000000E+00  0.00000000E+00
  0.00000000E+00  0.00000000E+00  0.00000000E+00
  0.00000000E+00  0.00000000E+00  0.00000000E+00
  0.00000000E+00  0.00000000E+00  0.00000000E+00
  0.00000000E+00  0.00000000E+00  0.00000000E+00
