Cs8
1.0
   7.0735999032   -5.9229196658    0.0000000000
   7.0735999032    5.9229196658    0.0000000000
   0.0000000000    0.0000000000   11.7325721400
Cs
8
direct
   0.2504326900    0.7495673100    0.2486972000 Cs
   0.2526459300    0.2526459300    0.0000000000 Cs
   0.7526459300    0.7526459300    0.5000000000 Cs
   0.7495673100    0.2504326900    0.7513028000 Cs
   0.2495673100    0.7504326900    0.7486972000 Cs
   0.7473540700    0.7473540700    0.0000000000 Cs
   0.7504326900    0.2495673100    0.2513028000 Cs
   0.2473540700    0.2473540700    0.5000000000 Cs
