Nd3 Zn11
1.0
  -2.2292145000    4.5356960000    6.5668360000
   2.2292145000   -4.5356960000    6.5668360000
   2.2292145000    4.5356960000   -6.5668360000
Nd Zn
3 11
direct
   0.3013880000    0.3013880000    0.0000000000 Nd
   0.6986120000    0.6986120000    0.0000000000 Nd
   0.0000000000    0.0000000000    0.0000000000 Nd
   0.7004050000    0.3379735000    0.3624315000 Zn
   0.2995950000    0.6620265000    0.6375685000 Zn
   0.9755420000    0.3379735000    0.6375685000 Zn
   0.0244580000    0.6620265000    0.3624315000 Zn
   0.6984090000    0.5000000000    0.1984090000 Zn
   0.3015910000    0.5000000000    0.8015910000 Zn
   0.4158960000    0.1379810000    0.2779150000 Zn
   0.5841040000    0.8620190000    0.7220850000 Zn
   0.8600660000    0.1379810000    0.7220850000 Zn
   0.1399340000    0.8620190000    0.2779150000 Zn
   0.5000000000    0.0000000000    0.5000000000 Zn
