Cs27 Cl27                               
    1.000000000000000     
    12.2263459171999997    0.0000000000000000    0.0000000000000000
     0.0000000000000000   12.2263459171999997    0.0000000000000000
     0.0000000000000000    0.0000000000000000   12.2263459171999997
   Cs   Cl
    27    27
Direct
     0.0000000000000000    0.0000000000000000    0.0000000000000000
     0.0000000000000000    0.0000000000000000    0.3333333332999970
     0.0000000000000000    0.0000000000000000    0.6666666667000030
     0.0000000000000000    0.3333333332999970    0.0000000000000000
     0.0000000000000000    0.3333333332999970    0.3333333332999970
     0.0000000000000000    0.3333333332999970    0.6666666667000030
     0.0000000000000000    0.6666666667000030    0.0000000000000000
     0.0000000000000000    0.6666666667000030    0.3333333332999970
     0.0000000000000000    0.6666666667000030    0.6666666667000030
     0.3333333332999970    0.0000000000000000    0.0000000000000000
     0.3333333332999970    0.0000000000000000    0.3333333332999970
     0.3333333332999970    0.0000000000000000    0.6666666667000030
     0.3333333332999970    0.3333333332999970    0.0000000000000000
     0.3333333332999970    0.3333333332999970    0.3333333332999970
     0.3333333332999970    0.3333333332999970    0.6666666667000030
     0.3333333332999970    0.6666666667000030    0.0000000000000000
     0.3333333332999970    0.6666666667000030    0.3333333332999970
     0.3333333332999970    0.6666666667000030    0.6666666667000030
     0.6666666667000030    0.0000000000000000    0.0000000000000000
     0.6666666667000030    0.0000000000000000    0.3333333332999970
     0.6666666667000030    0.0000000000000000    0.6666666667000030
     0.6666666667000030    0.3333333332999970    0.0000000000000000
     0.6666666667000030    0.3333333332999970    0.3333333332999970
     0.6666666667000030    0.3333333332999970    0.6666666667000030
     0.6666666667000030    0.6666666667000030    0.0000000000000000
     0.6666666667000030    0.6666666667000030    0.3333333332999970
     0.6666666667000030    0.6666666667000030    0.6666666667000030
     0.1666666667000030    0.1666666667000030    0.1666666667000030
     0.1666666667000030    0.1666666667000030    0.5000000000000000
     0.1666666667000030    0.1666666667000030    0.8333333332999970
     0.1666666667000030    0.5000000000000000    0.1666666667000030
     0.1666666667000030    0.5000000000000000    0.5000000000000000
     0.1666666667000030    0.5000000000000000    0.8333333332999970
     0.1666666667000030    0.8333333332999970    0.1666666667000030
     0.1666666667000030    0.8333333332999970    0.5000000000000000
     0.1666666667000030    0.8333333332999970    0.8333333332999970
     0.5000000000000000    0.1666666667000030    0.1666666667000030
     0.5000000000000000    0.1666666667000030    0.5000000000000000
     0.5000000000000000    0.1666666667000030    0.8333333332999970
     0.5000000000000000    0.5000000000000000    0.1666666667000030
     0.5000000000000000    0.5000000000000000    0.5000000000000000
     0.5000000000000000    0.5000000000000000    0.8333333332999970
     0.5000000000000000    0.8333333332999970    0.1666666667000030
     0.5000000000000000    0.8333333332999970    0.5000000000000000
     0.5000000000000000    0.8333333332999970    0.8333333332999970
     0.8333333332999970    0.1666666667000030    0.1666666667000030
     0.8333333332999970    0.1666666667000030    0.5000000000000000
     0.8333333332999970    0.1666666667000030    0.8333333332999970
     0.8333333332999970    0.5000000000000000    0.1666666667000030
     0.8333333332999970    0.5000000000000000    0.5000000000000000
     0.8333333332999970    0.5000000000000000    0.8333333332999970
     0.8333333332999970    0.8333333332999970    0.1666666667000030
     0.8333333332999970    0.8333333332999970    0.5000000000000000
     0.8333333332999970    0.8333333332999970    0.8333333332999970
 
  0.00000000E+00  0.00000000E+00  0.00000000E+00
  0.00000000E+00  0.00000000E+00  0.00000000E+00
  0.00000000E+00  0.00000000E+00  0.00000000E+00
  0.00000000E+00  0.00000000E+00  0.00000000E+00
  0.00000000E+00  0.00000000E+00  0.00000000E+00
  0.00000000E+00  0.00000000E+00  0.00000000E+00
  0.00000000E+00  0.00000000E+00  0.00000000E+00
  0.00000000E+00  0.00000000E+00  0.00000000E+00
  0.00000000E+00  0.00000000E+00  0.00000000E+00
  0.00000000E+00  0.00000000E+00  0.00000000E+00
  0.00000000E+00  0.00000000E+00  0.00000000E+00
  0.00000000E+00  0.00000000E+00  0.00000000E+00
  0.00000000E+00  0.00000000E+00  0.00000000E+00
  0.00000000E+00  0.00000000E+00  0.00000000E+00
  0.00000000E+00  0.00000000E+00  0.00000000E+00
  0.00000000E+00  0.00000000E+00  0.00000000E+00
  0.00000000E+00  0.00000000E+00  0.00000000E+00
  0.00000000E+00  0.00000000E+00  0.00000000E+00
  0.00000000E+00  0.00000000E+00  0.00000000E+00
  0.00000000E+00  0.00000000E+00  0.00000000E+00
  0.00000000E+00  0.00000000E+00  0.00000000E+00
  0.00000000E+00  0.00000000E+00  0.00000000E+00
  0.00000000E+00  0.00000000E+00  0.00000000E+00
  0.00000000E+00  0.00000000E+00  0.00000000E+00
  0.00000000E+00  0.00000000E+00  0.00000000E+00
  0.00000000E+00  0.00000000E+00  0.00000000E+00
  0.00000000E+00  0.00000000E+00  0.00000000E+00
  0.00000000E+00  0.00000000E+00  0.00000000E+00
  0.00000000E+00  0.00000000E+00  0.00000000E+00
  0.00000000E+00  0.00000000E+00  0.00000000E+00
  0.00000000E+00  0.00000000E+00  0.00000000E+00
  0.00000000E+00  0.00000000E+00  0.00000000E+00
  0.00000000E+00  0.00000000E+00  0.00000000E+00
  0.00000000E+00  0.00000000E+00  0.00000000E+00
  0.00000000E+00  0.00000000E+00  0.00000000E+00
  0.00000000E+00  0.00000000E+00  0.00000000E+00
  0.00000000E+00  0.00000000E+00  0.00000000E+00
  0.00000000E+00  0.00000000E+00  0.00000000E+00
  0.00000000E+00  0.00000000E+00  0.00000000E+00
  0.00000000E+00  0.00000000E+00  0.00000000E+00
  0.00000000E+00  0.00000000E+00  0.00000000E+00
  0.00000000E+00  0.00000000E+00  0.00000000E+00
  0.00000000E+00  0.00000000E+00  0.00000000E+00
  0.00000000E+00  0.00000000E+00  0.00000000E+00
  0.00000000E+00  0.00000000E+00  0.00000000E+00
  0.00000000E+00  0.00000000E+00  0.00000000E+00
  0.00000000E+00  0.00000000E+00  0.00000000E+00
  0.00000000E+00  0.00000000E+00  0.00000000E+00
  0.00000000E+00  0.00000000E+00  0.00000000E+00
  0.00000000E+00  0.00000000E+00  0.00000000E+00
  0.00000000E+00  0.00000000E+00  0.00000000E+00
  0.00000000E+00  0.00000000E+00  0.00000000E+00
  0.00000000E+00  0.00000000E+00  0.00000000E+00
  0.00000000E+00  0.00000000E+00  0.00000000E+00
