Cs27 Cl27
1.0
  12.2263459172    0.0000000000    0.0000000000
   0.0000000000   12.2263459172    0.0000000000
   0.0000000000    0.0000000000   12.2263459172
Cs Cl
27 27
direct
   0.0000000000    0.0000000000    0.0000000000 Cs
   0.0000000000    0.0000000000    0.3333333333 Cs
   0.0000000000    0.0000000000    0.6666666667 Cs
   0.0000000000    0.3333333333    0.0000000000 Cs
   0.0000000000    0.3333333333    0.3333333333 Cs
   0.0000000000    0.3333333333    0.6666666667 Cs
   0.0000000000    0.6666666667    0.0000000000 Cs
   0.0000000000    0.6666666667    0.3333333333 Cs
   0.0000000000    0.6666666667    0.6666666667 Cs
   0.3333333333    0.0000000000    0.0000000000 Cs
   0.3333333333    0.0000000000    0.3333333333 Cs
   0.3333333333    0.0000000000    0.6666666667 Cs
   0.3333333333    0.3333333333    0.0000000000 Cs
   0.3333333333    0.3333333333    0.3333333333 Cs
   0.3333333333    0.3333333333    0.6666666667 Cs
   0.3333333333    0.6666666667    0.0000000000 Cs
   0.3333333333    0.6666666667    0.3333333333 Cs
   0.3333333333    0.6666666667    0.6666666667 Cs
   0.6666666667    0.0000000000    0.0000000000 Cs
   0.6666666667    0.0000000000    0.3333333333 Cs
   0.6666666667    0.0000000000    0.6666666667 Cs
   0.6666666667    0.3333333333    0.0000000000 Cs
   0.6666666667    0.3333333333    0.3333333333 Cs
   0.6666666667    0.3333333333    0.6666666667 Cs
   0.6666666667    0.6666666667    0.0000000000 Cs
   0.6666666667    0.6666666667    0.3333333333 Cs
   0.6666666667    0.6666666667    0.6666666667 Cs
   0.1666666667    0.1666666667    0.1666666667 Cl
   0.1666666667    0.1666666667    0.5000000000 Cl
   0.1666666667    0.1666666667    0.8333333333 Cl
   0.1666666667    0.5000000000    0.1666666667 Cl
   0.1666666667    0.5000000000    0.5000000000 Cl
   0.1666666667    0.5000000000    0.8333333333 Cl
   0.1666666667    0.8333333333    0.1666666667 Cl
   0.1666666667    0.8333333333    0.5000000000 Cl
   0.1666666667    0.8333333333    0.8333333333 Cl
   0.5000000000    0.1666666667    0.1666666667 Cl
   0.5000000000    0.1666666667    0.5000000000 Cl
   0.5000000000    0.1666666667    0.8333333333 Cl
   0.5000000000    0.5000000000    0.1666666667 Cl
   0.5000000000    0.5000000000    0.5000000000 Cl
   0.5000000000    0.5000000000    0.8333333333 Cl
   0.5000000000    0.8333333333    0.1666666667 Cl
   0.5000000000    0.8333333333    0.5000000000 Cl
   0.5000000000    0.8333333333    0.8333333333 Cl
   0.8333333333    0.1666666667    0.1666666667 Cl
   0.8333333333    0.1666666667    0.5000000000 Cl
   0.8333333333    0.1666666667    0.8333333333 Cl
   0.8333333333    0.5000000000    0.1666666667 Cl
   0.8333333333    0.5000000000    0.5000000000 Cl
   0.8333333333    0.5000000000    0.8333333333 Cl
   0.8333333333    0.8333333333    0.1666666667 Cl
   0.8333333333    0.8333333333    0.5000000000 Cl
   0.8333333333    0.8333333333    0.8333333333 Cl
