Zn2 S2                                  
    1.000000000000000     
     3.7815838737352645   -0.0000000000003670    0.0000000000000000
    -1.8907919368182682    3.2749477011556150   -0.0000000000000000
     0.0000000000000000   -0.0000000000000000    6.2047662326306305
   Zn   S 
     2     2
Direct
     0.6666666667000030    0.3333333332999970    0.5004008683295187
     0.3333333332999970    0.6666666667000030    0.0004008683295187
     0.6666666667000030    0.3333333332999970    0.8745991316704813
     0.3333333332999970    0.6666666667000030    0.3745991316704813
 
  0.00000000E+00  0.00000000E+00  0.00000000E+00
  0.00000000E+00  0.00000000E+00  0.00000000E+00
  0.00000000E+00  0.00000000E+00  0.00000000E+00
  0.00000000E+00  0.00000000E+00  0.00000000E+00
