Zn2 S2
1.0
   3.7826247192    0.0000000000    0.0000000000
  -1.8913123596    3.2758490998    0.0000000000
   0.0000000000    0.0000000000    6.1998935541
Zn S
2 2
direct
   0.6666666667    0.3333333333    0.5001799299 Zn
   0.3333333333    0.6666666667    0.0001799299 Zn
   0.6666666667    0.3333333333    0.8748200701 S
   0.3333333333    0.6666666667    0.3748200701 S
