Num irrep kpoints: 24
0
Gamma
5 7 4
0.0 0.0 0.5
