Nd4 Zn12
1.0
   6.7270949900    0.0000000000    0.0000000000
   0.0000000000    4.4953618200    0.0000000000
   0.0000000000    0.0000000000   10.1969018900
Nd Zn
4 12
direct
   0.2816771100    0.7500000000    0.1554230850 Nd
   0.7816771100    0.7500000000    0.3445769150 Nd
   0.7183228900    0.2500000000    0.8445769150 Nd
   0.2183228900    0.2500000000    0.6554230850 Nd
   0.5342083900    0.7500000000    0.6080641050 Zn
   0.0342083900    0.7500000000    0.8919358950 Zn
   0.4657916100    0.2500000000    0.3919358950 Zn
   0.9657916100    0.2500000000    0.1080641050 Zn
   0.9094720300    0.7500000000    0.6476518650 Zn
   0.4094720300    0.7500000000    0.8523481350 Zn
   0.0905279700    0.2500000000    0.3523481350 Zn
   0.5905279700    0.2500000000    0.1476518650 Zn
   0.2258927100    0.7500000000    0.4531549650 Zn
   0.7258927100    0.7500000000    0.0468450350 Zn
   0.7741072900    0.2500000000    0.5468450350 Zn
   0.2741072900    0.2500000000    0.9531549650 Zn
