Zn3 S4
1.0
   7.5631677474    0.0000000000    0.0000000000
  -1.8907919369    3.2749477012    0.0000000000
   0.0000000000    0.0000000000    6.2047662326
Zn S
3 4
direct
   0.8333333333    0.3333333333    0.5004008683 Zn
   0.1666666667    0.6666666667    0.0004008683 Zn
   0.6666666667    0.6666666667    0.0004008683 Zn
   0.3430948470    0.3306409122    0.8802848103 S
   0.8333333333    0.3333333333    0.8745991317 S
   0.1613611972    0.6567289854    0.3824476968 S
   0.6538881456    0.6727959503    0.3706117682 S
