Num irrep kpoints: 16
0
Gamma
4 4 3
0.5 0.5 0.0
