Nd6 Zn44
1.0
   6.2147344166   -6.2104896645    0.0000000000
   6.2147344166    6.2104896645    0.0000000000
  -6.2075933861    0.0000000000   10.5219370825
Nd Zn
6 44
direct
   0.4963326400    0.7464167500    0.4925633850 Nd
   0.7464167500    0.4963326400    0.9925633850 Nd
   0.5036673600    0.2535832500    0.5074366150 Nd
   0.2535832500    0.5036673600    0.0074366150 Nd
   0.1245835700    0.8754164300    0.7500000000 Nd
   0.8754164300    0.1245835700    0.2500000000 Nd
   0.4212731100    0.1960142900    0.8776299650 Zn
   0.4208889000    0.6821871300    0.8771337450 Zn
   0.1960142900    0.4212731100    0.3776299650 Zn
   0.1961617100    0.9558792900    0.3774684450 Zn
   0.9558792900    0.1961617100    0.8774684450 Zn
   0.9561780800    0.6825531200    0.8773022750 Zn
   0.6821871300    0.4208889000    0.3771337450 Zn
   0.6825531200    0.9561780800    0.3773022750 Zn
   0.5787268900    0.8039857100    0.1223700350 Zn
   0.5791111000    0.3178128700    0.1228662550 Zn
   0.8039857100    0.5787268900    0.6223700350 Zn
   0.8038382900    0.0441207100    0.6225315550 Zn
   0.0441207100    0.8038382900    0.1225315550 Zn
   0.0438219200    0.3174468800    0.1226977250 Zn
   0.3178128700    0.5791111000    0.6228662550 Zn
   0.3174468800    0.0438219200    0.6226977250 Zn
   0.1483365100    0.6224301400    0.2462689250 Zn
   0.6224301400    0.1483365100    0.7462689250 Zn
   0.6226437500    0.5977034200    0.7458786450 Zn
   0.5977034200    0.6226437500    0.2458786450 Zn
   0.8516634900    0.3775698600    0.7537310750 Zn
   0.3775698600    0.8516634900    0.2537310750 Zn
   0.3773562500    0.4022965800    0.2541213550 Zn
   0.4022965800    0.3773562500    0.7541213550 Zn
   0.4862625600    0.8836090200    0.7668941750 Zn
   0.8836090200    0.4862625600    0.2668941750 Zn
   0.8841015600    0.7793183200    0.2670683850 Zn
   0.7793183200    0.8841015600    0.7670683850 Zn
   0.5137374400    0.1163909800    0.2331058250 Zn
   0.1163909800    0.5137374400    0.7331058250 Zn
   0.1158984400    0.2206816800    0.7329316150 Zn
   0.2206816800    0.1158984400    0.2329316150 Zn
   0.8350799900    0.7360858200    0.4724674050 Zn
   0.7360858200    0.8350799900    0.9724674050 Zn
   0.7362388900    0.1372616900    0.9725961050 Zn
   0.1372616900    0.7362388900    0.4725961050 Zn
   0.1649200100    0.2639141800    0.5275325950 Zn
   0.2639141800    0.1649200100    0.0275325950 Zn
   0.2637611100    0.8627383100    0.0274038950 Zn
   0.8627383100    0.2637611100    0.5274038950 Zn
   0.5000000000    0.0000000000    0.0000000000 Zn
   0.0000000000    0.5000000000    0.5000000000 Zn
   0.0000000000    0.0000000000    0.5000000000 Zn
   0.0000000000    0.0000000000    0.0000000000 Zn
