Zn96 O96
1.0
  12.9974900979894770    0.0000000000000000    0.0000000000000000
  -6.4987450489947385   11.2561566102955783    0.0000000000000000
   0.0000000000000000    0.0000000000000000   15.6316036912665801
Zn O
96 96
direct
   0.0833333333333333    0.1666666666666667    0.0001473938708369 Zn
   0.0833333333333333    0.1666666666666667    0.3334807272041702 Zn
   0.0833333333333333    0.1666666666666667    0.6668140605375036 Zn
   0.0833333333333333    0.4166666666666667    0.0001473938708369 Zn
   0.0833333333333333    0.4166666666666667    0.3334807272041702 Zn
   0.0833333333333333    0.4166666666666667    0.6668140605375036 Zn
   0.0833333333333333    0.6666666666666666    0.0001473938708369 Zn
   0.0833333333333333    0.6666666666666666    0.3334807272041702 Zn
   0.0833333333333333    0.6666666666666666    0.6668140605375036 Zn
   0.0833333333333333    0.9166666666666667    0.0001473938708369 Zn
   0.0833333333333333    0.9166666666666667    0.3334807272041702 Zn
   0.0833333333333333    0.9166666666666667    0.6668140605375036 Zn
   0.3333333333333333    0.1666666666666667    0.0001473938708369 Zn
   0.3333333333333333    0.1666666666666667    0.3334807272041702 Zn
   0.3333333333333333    0.1666666666666667    0.6668140605375036 Zn
   0.3333333333333333    0.4166666666666667    0.0001473938708369 Zn
   0.3333333333333333    0.4166666666666667    0.3334807272041702 Zn
   0.3333333333333333    0.4166666666666667    0.6668140605375036 Zn
   0.3333333333333333    0.6666666666666666    0.0001473938708369 Zn
   0.3333333333333333    0.6666666666666666    0.3334807272041702 Zn
   0.3333333333333333    0.6666666666666666    0.6668140605375036 Zn
   0.3333333333333333    0.9166666666666667    0.0001473938708369 Zn
   0.3333333333333333    0.9166666666666667    0.3334807272041702 Zn
   0.3333333333333333    0.9166666666666667    0.6668140605375036 Zn
   0.5833333333333333    0.1666666666666667    0.0001473938708369 Zn
   0.5833333333333333    0.1666666666666667    0.3334807272041702 Zn
   0.5833333333333333    0.1666666666666667    0.6668140605375036 Zn
   0.5833333333333334    0.4166666666666667    0.0001473938708369 Zn
   0.5833333333333334    0.4166666666666667    0.3334807272041702 Zn
   0.5833333333333334    0.4166666666666667    0.6668140605375036 Zn
   0.5833333333333333    0.6666666666666666    0.0001473938708369 Zn
   0.5833333333333333    0.6666666666666666    0.3334807272041702 Zn
   0.5833333333333333    0.6666666666666666    0.6668140605375036 Zn
   0.5833333333333333    0.9166666666666667    0.0001473938708369 Zn
   0.5833333333333333    0.9166666666666667    0.3334807272041702 Zn
   0.5833333333333333    0.9166666666666667    0.6668140605375036 Zn
   0.8333333333333334    0.1666666666666667    0.0001473938708369 Zn
   0.8333333333333334    0.1666666666666667    0.3334807272041702 Zn
   0.8333333333333334    0.1666666666666667    0.6668140605375036 Zn
   0.8333333333333333    0.4166666666666667    0.0001473938708369 Zn
   0.8333333333333333    0.4166666666666667    0.3334807272041702 Zn
   0.8333333333333333    0.4166666666666667    0.6668140605375036 Zn
   0.8333333333333333    0.6666666666666666    0.0001473938708369 Zn
   0.8333333333333333    0.6666666666666666    0.3334807272041702 Zn
   0.8333333333333333    0.6666666666666666    0.6668140605375036 Zn
   0.8333333333333333    0.9166666666666667    0.0001473938708369 Zn
   0.8333333333333333    0.9166666666666667    0.3334807272041702 Zn
   0.8333333333333333    0.9166666666666667    0.6668140605375036 Zn
   0.1666666666666666    0.0833333333333333    0.1668140605375036 Zn
   0.1666666666666666    0.0833333333333333    0.5001473938708370 Zn
   0.1666666666666666    0.0833333333333333    0.8334807272041702 Zn
   0.1666666666666666    0.3333333333333333    0.1668140605375036 Zn
   0.1666666666666666    0.3333333333333333    0.5001473938708370 Zn
   0.1666666666666666    0.3333333333333333    0.8334807272041702 Zn
   0.1666666666666666    0.5833333333333334    0.1668140605375036 Zn
   0.1666666666666666    0.5833333333333334    0.5001473938708370 Zn
   0.1666666666666666    0.5833333333333334    0.8334807272041702 Zn
   0.1666666666666667    0.8333333333333334    0.1668140605375036 Zn
   0.1666666666666667    0.8333333333333334    0.5001473938708370 Zn
   0.1666666666666667    0.8333333333333334    0.8334807272041702 Zn
   0.4166666666666667    0.0833333333333333    0.1668140605375036 Zn
   0.4166666666666667    0.0833333333333333    0.5001473938708370 Zn
   0.4166666666666667    0.0833333333333333    0.8334807272041702 Zn
   0.4166666666666666    0.3333333333333333    0.1668140605375036 Zn
   0.4166666666666666    0.3333333333333333    0.5001473938708370 Zn
   0.4166666666666666    0.3333333333333333    0.8334807272041702 Zn
   0.4166666666666666    0.5833333333333334    0.1668140605375036 Zn
   0.4166666666666666    0.5833333333333334    0.5001473938708370 Zn
   0.4166666666666666    0.5833333333333334    0.8334807272041702 Zn
   0.4166666666666666    0.8333333333333334    0.1668140605375036 Zn
   0.4166666666666666    0.8333333333333334    0.5001473938708370 Zn
   0.4166666666666666    0.8333333333333334    0.8334807272041702 Zn
   0.6666666666666665    0.0833333333333333    0.1668140605375036 Zn
   0.6666666666666665    0.0833333333333333    0.5001473938708370 Zn
   0.6666666666666665    0.0833333333333333    0.8334807272041702 Zn
   0.6666666666666666    0.3333333333333333    0.1668140605375036 Zn
   0.6666666666666666    0.3333333333333333    0.5001473938708370 Zn
   0.6666666666666666    0.3333333333333333    0.8334807272041702 Zn
   0.6666666666666666    0.5833333333333334    0.1668140605375036 Zn
   0.6666666666666666    0.5833333333333334    0.5001473938708370 Zn
   0.6666666666666666    0.5833333333333334    0.8334807272041702 Zn
   0.6666666666666666    0.8333333333333334    0.1668140605375036 Zn
   0.6666666666666666    0.8333333333333334    0.5001473938708370 Zn
   0.6666666666666666    0.8333333333333334    0.8334807272041702 Zn
   0.9166666666666665    0.0833333333333333    0.1668140605375036 Zn
   0.9166666666666665    0.0833333333333333    0.5001473938708370 Zn
   0.9166666666666665    0.0833333333333333    0.8334807272041702 Zn
   0.9166666666666664    0.3333333333333333    0.1668140605375036 Zn
   0.9166666666666664    0.3333333333333333    0.5001473938708370 Zn
   0.9166666666666664    0.3333333333333333    0.8334807272041702 Zn
   0.9166666666666665    0.5833333333333334    0.1668140605375036 Zn
   0.9166666666666665    0.5833333333333334    0.5001473938708370 Zn
   0.9166666666666665    0.5833333333333334    0.8334807272041702 Zn
   0.9166666666666666    0.8333333333333334    0.1668140605375036 Zn
   0.9166666666666666    0.8333333333333334    0.5001473938708370 Zn
   0.9166666666666666    0.8333333333333334    0.8334807272041702 Zn
   0.0833333333333333    0.1666666666666667    0.1271526061291636 O
   0.0833333333333333    0.1666666666666667    0.4604859394624969 O
   0.0833333333333333    0.1666666666666667    0.7938192727958303 O
   0.0833333333333333    0.4166666666666667    0.1271526061291636 O
   0.0833333333333333    0.4166666666666667    0.4604859394624969 O
   0.0833333333333333    0.4166666666666667    0.7938192727958303 O
   0.0833333333333333    0.6666666666666666    0.1271526061291636 O
   0.0833333333333333    0.6666666666666666    0.4604859394624969 O
   0.0833333333333333    0.6666666666666666    0.7938192727958303 O
   0.0833333333333333    0.9166666666666667    0.1271526061291636 O
   0.0833333333333333    0.9166666666666667    0.4604859394624969 O
   0.0833333333333333    0.9166666666666667    0.7938192727958303 O
   0.3333333333333333    0.1666666666666667    0.1271526061291636 O
   0.3333333333333333    0.1666666666666667    0.4604859394624969 O
   0.3333333333333333    0.1666666666666667    0.7938192727958303 O
   0.3333333333333333    0.4166666666666667    0.1271526061291636 O
   0.3333333333333333    0.4166666666666667    0.4604859394624969 O
   0.3333333333333333    0.4166666666666667    0.7938192727958303 O
   0.3333333333333333    0.6666666666666666    0.1271526061291636 O
   0.3333333333333333    0.6666666666666666    0.4604859394624969 O
   0.3333333333333333    0.6666666666666666    0.7938192727958303 O
   0.3333333333333333    0.9166666666666667    0.1271526061291636 O
   0.3333333333333333    0.9166666666666667    0.4604859394624969 O
   0.3333333333333333    0.9166666666666667    0.7938192727958303 O
   0.5833333333333333    0.1666666666666667    0.1271526061291636 O
   0.5833333333333333    0.1666666666666667    0.4604859394624969 O
   0.5833333333333333    0.1666666666666667    0.7938192727958303 O
   0.5833333333333334    0.4166666666666667    0.1271526061291636 O
   0.5833333333333334    0.4166666666666667    0.4604859394624969 O
   0.5833333333333334    0.4166666666666667    0.7938192727958303 O
   0.5833333333333333    0.6666666666666666    0.1271526061291636 O
   0.5833333333333333    0.6666666666666666    0.4604859394624969 O
   0.5833333333333333    0.6666666666666666    0.7938192727958303 O
   0.5833333333333333    0.9166666666666667    0.1271526061291636 O
   0.5833333333333333    0.9166666666666667    0.4604859394624969 O
   0.5833333333333333    0.9166666666666667    0.7938192727958303 O
   0.8333333333333334    0.1666666666666667    0.1271526061291636 O
   0.8333333333333334    0.1666666666666667    0.4604859394624969 O
   0.8333333333333334    0.1666666666666667    0.7938192727958303 O
   0.8333333333333333    0.4166666666666667    0.1271526061291636 O
   0.8333333333333333    0.4166666666666667    0.4604859394624969 O
   0.8333333333333333    0.4166666666666667    0.7938192727958303 O
   0.8333333333333333    0.6666666666666666    0.1271526061291636 O
   0.8333333333333333    0.6666666666666666    0.4604859394624969 O
   0.8333333333333333    0.6666666666666666    0.7938192727958303 O
   0.8333333333333333    0.9166666666666667    0.1271526061291636 O
   0.8333333333333333    0.9166666666666667    0.4604859394624969 O
   0.8333333333333333    0.9166666666666667    0.7938192727958303 O
   0.1666666666666666    0.0833333333333333    0.2938192727958303 O
   0.1666666666666666    0.0833333333333333    0.6271526061291636 O
   0.1666666666666666    0.0833333333333333    0.9604859394624968 O
   0.1666666666666666    0.3333333333333333    0.2938192727958303 O
   0.1666666666666666    0.3333333333333333    0.6271526061291636 O
   0.1666666666666666    0.3333333333333333    0.9604859394624968 O
   0.1666666666666666    0.5833333333333334    0.2938192727958303 O
   0.1666666666666666    0.5833333333333334    0.6271526061291636 O
   0.1666666666666666    0.5833333333333334    0.9604859394624968 O
   0.1666666666666667    0.8333333333333334    0.2938192727958303 O
   0.1666666666666667    0.8333333333333334    0.6271526061291636 O
   0.1666666666666667    0.8333333333333334    0.9604859394624968 O
   0.4166666666666667    0.0833333333333333    0.2938192727958303 O
   0.4166666666666667    0.0833333333333333    0.6271526061291636 O
   0.4166666666666667    0.0833333333333333    0.9604859394624968 O
   0.4166666666666666    0.3333333333333333    0.2938192727958303 O
   0.4166666666666666    0.3333333333333333    0.6271526061291636 O
   0.4166666666666666    0.3333333333333333    0.9604859394624968 O
   0.4166666666666666    0.5833333333333334    0.2938192727958303 O
   0.4166666666666666    0.5833333333333334    0.6271526061291636 O
   0.4166666666666666    0.5833333333333334    0.9604859394624968 O
   0.4166666666666666    0.8333333333333334    0.2938192727958303 O
   0.4166666666666666    0.8333333333333334    0.6271526061291636 O
   0.4166666666666666    0.8333333333333334    0.9604859394624968 O
   0.6666666666666665    0.0833333333333333    0.2938192727958303 O
   0.6666666666666665    0.0833333333333333    0.6271526061291636 O
   0.6666666666666665    0.0833333333333333    0.9604859394624968 O
   0.6666666666666666    0.3333333333333333    0.2938192727958303 O
   0.6666666666666666    0.3333333333333333    0.6271526061291636 O
   0.6666666666666666    0.3333333333333333    0.9604859394624968 O
   0.6666666666666666    0.5833333333333334    0.2938192727958303 O
   0.6666666666666666    0.5833333333333334    0.6271526061291636 O
   0.6666666666666666    0.5833333333333334    0.9604859394624968 O
   0.6666666666666666    0.8333333333333334    0.2938192727958303 O
   0.6666666666666666    0.8333333333333334    0.6271526061291636 O
   0.6666666666666666    0.8333333333333334    0.9604859394624968 O
   0.9166666666666665    0.0833333333333333    0.2938192727958303 O
   0.9166666666666665    0.0833333333333333    0.6271526061291636 O
   0.9166666666666665    0.0833333333333333    0.9604859394624968 O
   0.9166666666666664    0.3333333333333333    0.2938192727958303 O
   0.9166666666666664    0.3333333333333333    0.6271526061291636 O
   0.9166666666666664    0.3333333333333333    0.9604859394624968 O
   0.9166666666666665    0.5833333333333334    0.2938192727958303 O
   0.9166666666666665    0.5833333333333334    0.6271526061291636 O
   0.9166666666666665    0.5833333333333334    0.9604859394624968 O
   0.9166666666666666    0.8333333333333334    0.2938192727958303 O
   0.9166666666666666    0.8333333333333334    0.6271526061291636 O
   0.9166666666666666    0.8333333333333334    0.9604859394624968 O
