Nd1 Zn96 O96                            
   1.00000000000000     
    12.9974900980000001    0.0000000000000000    0.0000000000000000
    -6.4987450490000001   11.2561566102999997    0.0000000000000000
     0.0000000000000000    0.0000000000000000   15.6316036913000005
   Zn   O    Nd
    96    96     1
Direct
     0.0846882074537663    0.1681907064519984    0.9948126792227144
     0.0909078376425930    0.1858165652734713    0.3458054416990538
     0.0835440154167267    0.1670923069743251    0.6673612358255120
     0.0833229251556942    0.4174123120893768    0.9989277371514912
     0.0827792511506542    0.4184356744873533    0.3345251729265867
     0.0832763362241777    0.4169431603845118    0.6670872840023372
     0.0834994430351074    0.6659554367077463    0.9987525842001890
     0.0832589440839922    0.6643823171539124    0.3347027932424833
     0.0833183179375130    0.6663420135076505    0.6670963066729254
     0.0847539385482240    0.9167099685200431    0.9932128076052265
     0.0915054869505008    0.9058454636358424    0.3467096778698608
     0.0835819189056315    0.9164926012923658    0.6673631000647562
     0.3346072422029086    0.1672786879877406    0.9987340186051367
     0.3426585176644587    0.1712749691430063    0.3360343197259968
     0.3339977160365218    0.1669918181880972    0.6671980579406195
     0.3341152379193599    0.4172996754191145    0.9989715683903074
     0.3355309948483425    0.4185747793192851    0.3345588219527930
     0.3336511397724322    0.4169416440320914    0.6671026632552230
     0.3333405079269312    0.6666928074311949    0.9993419390419173
     0.3333466806264840    0.6666959668581548    0.3341919496647583
     0.3333291590208314    0.6666756484623504    0.6670397883787698
     0.3341576106672698    0.9168443840377242    0.9989663112223268
     0.3357736344192361    0.9171719005521903    0.3346058423006101
     0.3336846119365303    0.9167311554020312    0.6671068525415305
     0.5833704473013630    0.1669489526790953    0.9993011685152866
     0.5838115236666548    0.1674558548561127    0.3342887808257594
     0.5834237053239528    0.1668426549706732    0.6670597969609087
     0.5832796346374036    0.4162424738605362    0.9992222260449111
     0.5836490762753733    0.4159518708166319    0.3343637212242691
     0.5834022442940396    0.4165255603463147    0.6670643185616846
     0.5823912037538719    0.6657934768389664    0.9988127435584385
     0.5812364946939109    0.6644006136051770    0.3346439359901262
     0.5830123728933660    0.6663299693727449    0.6670872556540699
     0.5824758272907734    0.9167786283019810    0.9989114665215234
     0.5813340031390842    0.9172110118656789    0.3345601556932127
     0.5830341514534555    0.9167471876758639    0.6670839555590281
     0.8323050143151752    0.1676969817359778    0.9981140463132595
     0.8272246515731805    0.1726119761447485    0.3365610794832321
     0.8329917734859302    0.1670048840757884    0.6671279948219458
     0.8329072683177933    0.4163159735071262    0.9992079893491052
     0.8323749013888908    0.4157482539966146    0.3343543148282478
     0.8331315337377750    0.4165280514957895    0.6670481695995961
     0.8322742288923091    0.6646733476248958    0.9973399755041565
     0.8291677962966236    0.6587156020767989    0.3360193761441839
     0.8330073148760246    0.6660028392506936    0.6671635674246851
     0.8316995364629118    0.9156977323141218    0.9947142427614291
     0.8144234108841929    0.9115311861160724    0.3453898147504173
     0.8329279241998043    0.9165038158641491    0.6673342582321021
     0.2292529420463625    0.1156435846039991    0.1436075980494597
     0.1686865677317398    0.0843514573965437    0.5030201651947507
     0.1670829613998547    0.0835554782907860    0.8321973386500621
     0.1700454571841486    0.3401484428934271    0.1662414948890790
     0.1679829492747208    0.3359949852798705    0.5018639672713017
     0.1669296950133981    0.3338178466346919    0.8325028431430116
     0.1675663758320458    0.5835838833277376    0.1666868469403557
     0.1671562052418775    0.5835185514533091    0.5010797682628041
     0.1668218061279512    0.5833963605725704    0.8328718780359065
     0.1712483128772260    0.8301076919842906    0.1662679724043188
     0.1680259559259311    0.8320920144923948    0.5018105653622987
     0.1669708979464788    0.8331228710411421    0.8325210353379598
     0.4180568808693369    0.0835077040386451    0.1663028564909364
     0.4175566744638770    0.0832519496933178    0.5012464085307525
     0.4169180341329647    0.0833663000432772    0.8328497612809429
     0.4179554125648969    0.3344766445797411    0.1662847125625097
     0.4174867383330844    0.3342545022594572    0.5012646377557886
     0.4168904056242218    0.3335197739776192    0.8328367309886223
     0.4160058022785371    0.5835270784073183    0.1666602570749750
     0.4163686526439206    0.5835391308785010    0.5010824753785542
     0.4165487966321842    0.5833657684469606    0.8328763906939276
     0.4162036008162048    0.8326090551692036    0.1666389555883878
     0.4164315141892003    0.8328678492100871    0.5010719426733732
     0.4165746316459234    0.8332057158859962    0.8328921739183247
     0.6648457456759282    0.0833804739560347    0.1666017448917728
     0.6658729853897808    0.0833544848170954    0.5012089187595398
     0.6663922596621846    0.0833714835218466    0.8327833272152649
     0.6664924552261100    0.3330801345215584    0.1666512609824845
     0.6666564995711046    0.3332568383049493    0.5009638152923296
     0.6666295679223144    0.3332834573922717    0.8329462344470893
     0.6638728270039723    0.5809857860364682    0.1666185001689674
     0.6655923886655687    0.5823932184295224    0.5013127530910552
     0.6663703468721200    0.5830070104908482    0.8326953168763812
     0.6608019957011824    0.8304307475976846    0.1661026012139167
     0.6639454510881768    0.8320212036068148    0.5019054525204696
     0.6661303329646000    0.8330897952474898    0.8324185670695412
     0.8980140366694007    0.1062346604505482    0.1454585849318361
     0.9156362405009764    0.0845238276836266    0.5029966065380835
     0.9165543306840451    0.0835819786485840    0.8319299080826574
     0.9167881141581964    0.3349480174777540    0.1666858416555164
     0.9166958525659401    0.3341109740190606    0.5012043162647805
     0.9166598459665568    0.3335795322976409    0.8327703463270788
     0.9169609366683577    0.5804516668228434    0.1665404751017803
     0.9168020687372987    0.5823748223632408    0.5013199654321857
     0.9166725059313280    0.5830378653905833    0.8326899137398529
     0.9071228669108677    0.7960412806586353    0.1502934700297714
     0.9157603943780103    0.8314477944421463    0.5030940140836228
     0.9165580845058322    0.8330186741708823    0.8318865872650573
     0.0807120085713908    0.1603599230983250    0.1314011052213757
     0.0823843276024735    0.1644839026999654    0.4569860688688314
     0.0830683434375464    0.1662848650116765    0.7943254123332935
     0.0832751057775220    0.4148015510323833    0.1281062766920145
     0.0833254180973704    0.4157245204223206    0.4593639707875368
     0.0833373341013669    0.4164184457431359    0.7941449721180526
     0.0828404025267021    0.6685536489576782    0.1282252864038323
     0.0831918614493079    0.6675924071715594    0.4592688248351917
     0.0832892335469309    0.6669093367697674    0.7941508818054496
     0.0824944066765156    0.9214219719130806    0.1307950397580950
     0.0820479690152893    0.9175966474295366    0.4564058156721469
     0.0830328385631020    0.9167606499380616    0.7943341973724585
     0.3255262879671656    0.1628553378795723    0.1302076497810672
     0.3310938412665501    0.1655796658878124    0.4584607864330373
     0.3327860671203863    0.1664039363897236    0.7941540456352366
     0.3316240867848526    0.4150427637472267    0.1281599591432757
     0.3324277707899226    0.4156905776035916    0.4593492969539475
     0.3330662136371229    0.4164421006895889    0.7941263787449905
     0.3333230162501926    0.6666567928213644    0.1278219851354608
     0.3333349664612416    0.6666637459792722    0.4597270840738394
     0.3333342734265853    0.6666604518153546    0.7940816054474857
     0.3315117236648545    0.9164676974483100    0.1281917206951769
     0.3323619934048269    0.9166863923436935    0.4593317804833053
     0.3330420982906122    0.9166187676376064    0.7941161259813441
     0.5832873309152540    0.1662401598956173    0.1278999567154104
     0.5831398804150205    0.1663762867267210    0.4596481890654321
     0.5833007205914813    0.1665458214745634    0.7940841470814574
     0.5835416383804690    0.4174487758183720    0.1279442681107270
     0.5832281403349848    0.4169282905010439    0.4595843392267671
     0.5833203090789304    0.4168180207472650    0.7940998371742742
     0.5858341960515083    0.6688568807206474    0.1281798115501918
     0.5844082133784203    0.6676161541320783    0.4592909429732961
     0.5836440073652426    0.6669649180568791    0.7941710682891429
     0.5854360781400006    0.9166361415024231    0.1281205778529590
     0.5843377003184820    0.9166488410820357    0.4593382975510217
     0.5836251520833630    0.9166262859419519    0.7941560107404014
     0.8364459949343210    0.1636567377459506    0.1288069045763013
     0.8342941160395303    0.1656261533611203    0.4588823625121309
     0.8336341549076726    0.1663636329363489    0.7942458306651308
     0.8339360504962534    0.4173281692354299    0.1279242337577130
     0.8336731390517423    0.4169819822200678    0.4595982508736832
     0.8335019768638559    0.4167933189419266    0.7941197449746054
     0.8358350958666035    0.6710703828125777    0.1289457651938502
     0.8345210188177317    0.6690179238009283    0.4581954076530045
     0.8336198115023964    0.6672598611731998    0.7942735302761563
     0.8404505169291776    0.9165379785918290    0.1307911169581812
     0.8354762194976106    0.9177474640916663    0.4568805325497141
     0.8337096859646869    0.9168285813426230    0.7944110143989727
     0.1666128586377453    0.0825076734130388    0.2974807385695692
     0.1661087010291817    0.0830368378516543    0.6258060583656714
     0.1650861285493698    0.0826239134974796    0.9627735101556012
     0.1641203490376226    0.3275780167820497    0.2931277392269181
     0.1663101528995577    0.3326042383771284    0.6262321155970032
     0.1657289872520465    0.3316144784831374    0.9622166677966620
     0.1661254035951211    0.5831811859930760    0.2935677768498265
     0.1665141926540949    0.5832728331016895    0.6266462646195321
     0.1663456846884638    0.5832188127080586    0.9614191129294555
     0.1627990935172492    0.8364769969643884    0.2930220159292384
     0.1662733495373978    0.8336776273474341    0.6262224174141879
     0.1657214251314958    0.8339371357992230    0.9621084102966243
     0.4143529100419328    0.0830338069333119    0.2936647030799174
     0.4163139299241623    0.0832941086503398    0.6265316474912095
     0.4160916028864403    0.0832336412777959    0.9614722451508688
     0.4144336943789404    0.3313595995829475    0.2936539811549893
     0.4163447139524202    0.3330408934758536    0.6265262756070560
     0.4161530760797807    0.3329134962415922    0.9614881975585028
     0.4170687886557164    0.5831647453969817    0.2935850817754223
     0.4167755131431520    0.5832742966579507    0.6266434072679912
     0.4169124146592632    0.5832801931481706    0.9614030636042376
     0.4168602875464378    0.8337800464294237    0.2936049079550613
     0.4167471690060437    0.8334706169379347    0.6266481972498912
     0.4168499997482251    0.8335666656604697    0.9613815658229901
     0.6681582022368258    0.0829652828589068    0.2935213288243359
     0.6669623360995591    0.0832726765339362    0.6265790854657500
     0.6673528688302854    0.0832429016797548    0.9615492066394111
     0.6667261436388590    0.3335269666883609    0.2936395180363429
     0.6666811688254594    0.3333684937807173    0.6267157344149703
     0.6667669790987241    0.3334497741981774    0.9612752660103272
     0.6691328265711972    0.5859037470992312    0.2933775911887927
     0.6670241118086372    0.5837127327173822    0.6265093736157915
     0.6675694828757620    0.5842073055440958    0.9617495636570305
     0.6725937779684644    0.8363404644173320    0.2929634063295294
     0.6674200093852996    0.8336769337995875    0.6262238203244809
     0.6685660237115193    0.8341944868062213    0.9623442051968474
     0.9210559787545891    0.0840634823755245    0.2911343723295279
     0.9169336823620186    0.0830127811682467    0.6258401708949534
     0.9173831955400467    0.0826557833534751    0.9633691182915798
     0.9169592407557724    0.3322534828870689    0.2935020013170426
     0.9167090951263518    0.3330519208052744    0.6265757547417788
     0.9167014506709578    0.3327215331043321    0.9615696273559818
     0.9168524503571347    0.5862553407001234    0.2933203487388144
     0.9166837302243160    0.5837101558844598    0.6265145363774682
     0.9166226743569020    0.5841533037136589    0.9617511996773477
     0.9149352932623593    0.8335864001160634    0.2934880285630005
     0.9168951927387891    0.8338343687705468    0.6257909278927761
     0.9170486028167261    0.8344419662429160    0.9634848854524458
     0.9648934191613247    0.9848198254464571    0.2534723508141896
 
  0.00000000E+00  0.00000000E+00  0.00000000E+00
  0.00000000E+00  0.00000000E+00  0.00000000E+00
  0.00000000E+00  0.00000000E+00  0.00000000E+00
  0.00000000E+00  0.00000000E+00  0.00000000E+00
  0.00000000E+00  0.00000000E+00  0.00000000E+00
  0.00000000E+00  0.00000000E+00  0.00000000E+00
  0.00000000E+00  0.00000000E+00  0.00000000E+00
  0.00000000E+00  0.00000000E+00  0.00000000E+00
  0.00000000E+00  0.00000000E+00  0.00000000E+00
  0.00000000E+00  0.00000000E+00  0.00000000E+00
  0.00000000E+00  0.00000000E+00  0.00000000E+00
  0.00000000E+00  0.00000000E+00  0.00000000E+00
  0.00000000E+00  0.00000000E+00  0.00000000E+00
  0.00000000E+00  0.00000000E+00  0.00000000E+00
  0.00000000E+00  0.00000000E+00  0.00000000E+00
  0.00000000E+00  0.00000000E+00  0.00000000E+00
  0.00000000E+00  0.00000000E+00  0.00000000E+00
  0.00000000E+00  0.00000000E+00  0.00000000E+00
  0.00000000E+00  0.00000000E+00  0.00000000E+00
  0.00000000E+00  0.00000000E+00  0.00000000E+00
  0.00000000E+00  0.00000000E+00  0.00000000E+00
  0.00000000E+00  0.00000000E+00  0.00000000E+00
  0.00000000E+00  0.00000000E+00  0.00000000E+00
  0.00000000E+00  0.00000000E+00  0.00000000E+00
  0.00000000E+00  0.00000000E+00  0.00000000E+00
  0.00000000E+00  0.00000000E+00  0.00000000E+00
  0.00000000E+00  0.00000000E+00  0.00000000E+00
  0.00000000E+00  0.00000000E+00  0.00000000E+00
  0.00000000E+00  0.00000000E+00  0.00000000E+00
  0.00000000E+00  0.00000000E+00  0.00000000E+00
  0.00000000E+00  0.00000000E+00  0.00000000E+00
  0.00000000E+00  0.00000000E+00  0.00000000E+00
  0.00000000E+00  0.00000000E+00  0.00000000E+00
  0.00000000E+00  0.00000000E+00  0.00000000E+00
  0.00000000E+00  0.00000000E+00  0.00000000E+00
  0.00000000E+00  0.00000000E+00  0.00000000E+00
  0.00000000E+00  0.00000000E+00  0.00000000E+00
  0.00000000E+00  0.00000000E+00  0.00000000E+00
  0.00000000E+00  0.00000000E+00  0.00000000E+00
  0.00000000E+00  0.00000000E+00  0.00000000E+00
  0.00000000E+00  0.00000000E+00  0.00000000E+00
  0.00000000E+00  0.00000000E+00  0.00000000E+00
  0.00000000E+00  0.00000000E+00  0.00000000E+00
  0.00000000E+00  0.00000000E+00  0.00000000E+00
  0.00000000E+00  0.00000000E+00  0.00000000E+00
  0.00000000E+00  0.00000000E+00  0.00000000E+00
  0.00000000E+00  0.00000000E+00  0.00000000E+00
  0.00000000E+00  0.00000000E+00  0.00000000E+00
  0.00000000E+00  0.00000000E+00  0.00000000E+00
  0.00000000E+00  0.00000000E+00  0.00000000E+00
  0.00000000E+00  0.00000000E+00  0.00000000E+00
  0.00000000E+00  0.00000000E+00  0.00000000E+00
  0.00000000E+00  0.00000000E+00  0.00000000E+00
  0.00000000E+00  0.00000000E+00  0.00000000E+00
  0.00000000E+00  0.00000000E+00  0.00000000E+00
  0.00000000E+00  0.00000000E+00  0.00000000E+00
  0.00000000E+00  0.00000000E+00  0.00000000E+00
  0.00000000E+00  0.00000000E+00  0.00000000E+00
  0.00000000E+00  0.00000000E+00  0.00000000E+00
  0.00000000E+00  0.00000000E+00  0.00000000E+00
  0.00000000E+00  0.00000000E+00  0.00000000E+00
  0.00000000E+00  0.00000000E+00  0.00000000E+00
  0.00000000E+00  0.00000000E+00  0.00000000E+00
  0.00000000E+00  0.00000000E+00  0.00000000E+00
  0.00000000E+00  0.00000000E+00  0.00000000E+00
  0.00000000E+00  0.00000000E+00  0.00000000E+00
  0.00000000E+00  0.00000000E+00  0.00000000E+00
  0.00000000E+00  0.00000000E+00  0.00000000E+00
  0.00000000E+00  0.00000000E+00  0.00000000E+00
  0.00000000E+00  0.00000000E+00  0.00000000E+00
  0.00000000E+00  0.00000000E+00  0.00000000E+00
  0.00000000E+00  0.00000000E+00  0.00000000E+00
  0.00000000E+00  0.00000000E+00  0.00000000E+00
  0.00000000E+00  0.00000000E+00  0.00000000E+00
  0.00000000E+00  0.00000000E+00  0.00000000E+00
  0.00000000E+00  0.00000000E+00  0.00000000E+00
  0.00000000E+00  0.00000000E+00  0.00000000E+00
  0.00000000E+00  0.00000000E+00  0.00000000E+00
  0.00000000E+00  0.00000000E+00  0.00000000E+00
  0.00000000E+00  0.00000000E+00  0.00000000E+00
  0.00000000E+00  0.00000000E+00  0.00000000E+00
  0.00000000E+00  0.00000000E+00  0.00000000E+00
  0.00000000E+00  0.00000000E+00  0.00000000E+00
  0.00000000E+00  0.00000000E+00  0.00000000E+00
  0.00000000E+00  0.00000000E+00  0.00000000E+00
  0.00000000E+00  0.00000000E+00  0.00000000E+00
  0.00000000E+00  0.00000000E+00  0.00000000E+00
  0.00000000E+00  0.00000000E+00  0.00000000E+00
  0.00000000E+00  0.00000000E+00  0.00000000E+00
  0.00000000E+00  0.00000000E+00  0.00000000E+00
  0.00000000E+00  0.00000000E+00  0.00000000E+00
  0.00000000E+00  0.00000000E+00  0.00000000E+00
  0.00000000E+00  0.00000000E+00  0.00000000E+00
  0.00000000E+00  0.00000000E+00  0.00000000E+00
  0.00000000E+00  0.00000000E+00  0.00000000E+00
  0.00000000E+00  0.00000000E+00  0.00000000E+00
  0.00000000E+00  0.00000000E+00  0.00000000E+00
  0.00000000E+00  0.00000000E+00  0.00000000E+00
  0.00000000E+00  0.00000000E+00  0.00000000E+00
  0.00000000E+00  0.00000000E+00  0.00000000E+00
  0.00000000E+00  0.00000000E+00  0.00000000E+00
  0.00000000E+00  0.00000000E+00  0.00000000E+00
  0.00000000E+00  0.00000000E+00  0.00000000E+00
  0.00000000E+00  0.00000000E+00  0.00000000E+00
  0.00000000E+00  0.00000000E+00  0.00000000E+00
  0.00000000E+00  0.00000000E+00  0.00000000E+00
  0.00000000E+00  0.00000000E+00  0.00000000E+00
  0.00000000E+00  0.00000000E+00  0.00000000E+00
  0.00000000E+00  0.00000000E+00  0.00000000E+00
  0.00000000E+00  0.00000000E+00  0.00000000E+00
  0.00000000E+00  0.00000000E+00  0.00000000E+00
  0.00000000E+00  0.00000000E+00  0.00000000E+00
  0.00000000E+00  0.00000000E+00  0.00000000E+00
  0.00000000E+00  0.00000000E+00  0.00000000E+00
  0.00000000E+00  0.00000000E+00  0.00000000E+00
  0.00000000E+00  0.00000000E+00  0.00000000E+00
  0.00000000E+00  0.00000000E+00  0.00000000E+00
  0.00000000E+00  0.00000000E+00  0.00000000E+00
  0.00000000E+00  0.00000000E+00  0.00000000E+00
  0.00000000E+00  0.00000000E+00  0.00000000E+00
  0.00000000E+00  0.00000000E+00  0.00000000E+00
  0.00000000E+00  0.00000000E+00  0.00000000E+00
  0.00000000E+00  0.00000000E+00  0.00000000E+00
  0.00000000E+00  0.00000000E+00  0.00000000E+00
  0.00000000E+00  0.00000000E+00  0.00000000E+00
  0.00000000E+00  0.00000000E+00  0.00000000E+00
  0.00000000E+00  0.00000000E+00  0.00000000E+00
  0.00000000E+00  0.00000000E+00  0.00000000E+00
  0.00000000E+00  0.00000000E+00  0.00000000E+00
  0.00000000E+00  0.00000000E+00  0.00000000E+00
  0.00000000E+00  0.00000000E+00  0.00000000E+00
  0.00000000E+00  0.00000000E+00  0.00000000E+00
  0.00000000E+00  0.00000000E+00  0.00000000E+00
  0.00000000E+00  0.00000000E+00  0.00000000E+00
  0.00000000E+00  0.00000000E+00  0.00000000E+00
  0.00000000E+00  0.00000000E+00  0.00000000E+00
  0.00000000E+00  0.00000000E+00  0.00000000E+00
  0.00000000E+00  0.00000000E+00  0.00000000E+00
  0.00000000E+00  0.00000000E+00  0.00000000E+00
  0.00000000E+00  0.00000000E+00  0.00000000E+00
  0.00000000E+00  0.00000000E+00  0.00000000E+00
  0.00000000E+00  0.00000000E+00  0.00000000E+00
  0.00000000E+00  0.00000000E+00  0.00000000E+00
  0.00000000E+00  0.00000000E+00  0.00000000E+00
  0.00000000E+00  0.00000000E+00  0.00000000E+00
  0.00000000E+00  0.00000000E+00  0.00000000E+00
  0.00000000E+00  0.00000000E+00  0.00000000E+00
  0.00000000E+00  0.00000000E+00  0.00000000E+00
  0.00000000E+00  0.00000000E+00  0.00000000E+00
  0.00000000E+00  0.00000000E+00  0.00000000E+00
  0.00000000E+00  0.00000000E+00  0.00000000E+00
  0.00000000E+00  0.00000000E+00  0.00000000E+00
  0.00000000E+00  0.00000000E+00  0.00000000E+00
  0.00000000E+00  0.00000000E+00  0.00000000E+00
  0.00000000E+00  0.00000000E+00  0.00000000E+00
  0.00000000E+00  0.00000000E+00  0.00000000E+00
  0.00000000E+00  0.00000000E+00  0.00000000E+00
  0.00000000E+00  0.00000000E+00  0.00000000E+00
  0.00000000E+00  0.00000000E+00  0.00000000E+00
  0.00000000E+00  0.00000000E+00  0.00000000E+00
  0.00000000E+00  0.00000000E+00  0.00000000E+00
  0.00000000E+00  0.00000000E+00  0.00000000E+00
  0.00000000E+00  0.00000000E+00  0.00000000E+00
  0.00000000E+00  0.00000000E+00  0.00000000E+00
  0.00000000E+00  0.00000000E+00  0.00000000E+00
  0.00000000E+00  0.00000000E+00  0.00000000E+00
  0.00000000E+00  0.00000000E+00  0.00000000E+00
  0.00000000E+00  0.00000000E+00  0.00000000E+00
  0.00000000E+00  0.00000000E+00  0.00000000E+00
  0.00000000E+00  0.00000000E+00  0.00000000E+00
  0.00000000E+00  0.00000000E+00  0.00000000E+00
  0.00000000E+00  0.00000000E+00  0.00000000E+00
  0.00000000E+00  0.00000000E+00  0.00000000E+00
  0.00000000E+00  0.00000000E+00  0.00000000E+00
  0.00000000E+00  0.00000000E+00  0.00000000E+00
  0.00000000E+00  0.00000000E+00  0.00000000E+00
  0.00000000E+00  0.00000000E+00  0.00000000E+00
  0.00000000E+00  0.00000000E+00  0.00000000E+00
  0.00000000E+00  0.00000000E+00  0.00000000E+00
  0.00000000E+00  0.00000000E+00  0.00000000E+00
  0.00000000E+00  0.00000000E+00  0.00000000E+00
  0.00000000E+00  0.00000000E+00  0.00000000E+00
  0.00000000E+00  0.00000000E+00  0.00000000E+00
  0.00000000E+00  0.00000000E+00  0.00000000E+00
  0.00000000E+00  0.00000000E+00  0.00000000E+00
  0.00000000E+00  0.00000000E+00  0.00000000E+00
  0.00000000E+00  0.00000000E+00  0.00000000E+00
  0.00000000E+00  0.00000000E+00  0.00000000E+00
  0.00000000E+00  0.00000000E+00  0.00000000E+00
  0.00000000E+00  0.00000000E+00  0.00000000E+00
  0.00000000E+00  0.00000000E+00  0.00000000E+00
  0.00000000E+00  0.00000000E+00  0.00000000E+00
  0.00000000E+00  0.00000000E+00  0.00000000E+00
