Nd2 Zn17
1.0
   4.4763857156    2.5844424979    4.3546234174
  -4.4763857156    2.5844424979    4.3546234174
   0.0000000000   -5.1688849959    4.3546234174
Nd Zn
2 17
direct
   0.6636253000    0.6636253000    0.6636253000 Nd
   0.3363747000    0.3363747000    0.3363747000 Nd
   0.3493854000    0.3493854000    0.8391970300 Zn
   0.3493854000    0.8391970300    0.3493854000 Zn
   0.0987871900    0.0987871900    0.0987871900 Zn
   0.9012128100    0.9012128100    0.9012128100 Zn
  -0.0000000000    0.0000000000    0.5000000000 Zn
   0.5000000000    0.0000000000    0.0000000000 Zn
   0.0000000000    0.5000000000    0.0000000000 Zn
   0.7079875500    0.2920124500    0.0000000000 Zn
  -0.0000000000    0.7079875500    0.2920124500 Zn
   0.2920124500    0.0000000000    0.7079875500 Zn
   0.2920124500    0.7079875500    0.0000000000 Zn
  -0.0000000000    0.2920124500    0.7079875500 Zn
   0.7079875500    0.0000000000    0.2920124500 Zn
   0.6506146000    0.1608029700    0.6506146000 Zn
   0.6506146000    0.6506146000    0.1608029700 Zn
   0.1608029700    0.6506146000    0.6506146000 Zn
   0.8391970300    0.3493854000    0.3493854000 Zn
