Na2 Nd2 O4                              
   1.00000000000000     
    -2.3254257592062078    2.3254257592062078    5.3912217408432559
     2.3254257592062078   -2.3254257592062078    5.3912217408432559
     2.3254257592062078    2.3254257592062078   -5.3912217408432559
   Na   Nd   O 
     2     2     4
Direct
     0.2500000000000000    0.7500000000000000    0.5000000000000000
     0.5000000000000000    0.5000000000000000    0.0000000000000000
     0.0000000000000000    0.0000000000000000    0.0000000000000000
     0.7500000000000000    0.2500000000000000    0.5000000000000000
     0.7812053123257652    0.7812053123257652    0.0000000000000000
     0.5312053123257652    0.0312053123257652    0.5000000000000000
     0.2187946876742348    0.2187946876742348    0.0000000000000000
     0.9687946876742348    0.4687946876742349    0.5000000000000000
 
  0.00000000E+00  0.00000000E+00  0.00000000E+00
  0.00000000E+00  0.00000000E+00  0.00000000E+00
  0.00000000E+00  0.00000000E+00  0.00000000E+00
  0.00000000E+00  0.00000000E+00  0.00000000E+00
  0.00000000E+00  0.00000000E+00  0.00000000E+00
  0.00000000E+00  0.00000000E+00  0.00000000E+00
  0.00000000E+00  0.00000000E+00  0.00000000E+00
  0.00000000E+00  0.00000000E+00  0.00000000E+00
