Na2 Nd2 O4
1.0
  -2.3703021420    2.3703021420    5.4868644915
   2.3703021420   -2.3703021420    5.4868644915
   2.3703021420    2.3703021420   -5.4868644915
Na Nd O
2 2 4
direct
   0.2500000000    0.7500000000    0.5000000000 Na
   0.5000000000    0.5000000000    0.0000000000 Na
   0.0000000000    0.0000000000    0.0000000000 Nd
   0.7500000000    0.2500000000    0.5000000000 Nd
   0.7807477250    0.7807477250    0.0000000000 O
   0.5307477250    0.0307477250    0.5000000000 O
   0.2192522750    0.2192522750    0.0000000000 O
   0.9692522750    0.4692522750    0.5000000000 O
