Zn2 S2
1.0
   1.9028982335470761   -3.2959164221366031    0.0000000000000000
   1.9028982335470761    3.2959164221366031    0.0000000000000000
   0.0000000000000000    0.0000000000000000    6.2379816300000002
Zn S
2 2
direct
   0.3333333333333330    0.6666666666666661    0.0001396799999990 Zn2+
   0.6666666666666661    0.3333333333333330    0.5001396800000000 Zn2+
   0.3333333333333330    0.6666666666666661    0.3748603200000000 S2-
   0.6666666666666661    0.3333333333333330    0.8748603200000000 S2-
