S32                                     
    1.000000000000000     
     8.3336999757652954    0.0443934968253204    0.0020411584611390
    -1.6848804049933550    8.1619036452401925   -0.0020495916286678
    -3.3267796262816285   -4.1008747890946227   12.1342697263297161
   S 
    32
Direct
     0.0452034412383691    0.6397932204170893    0.8987665921767373
     0.7398822809683204    0.6467824370390355    0.5997175725981119
     0.8582518278898918    0.4531656201654579    0.6000691484980284
     0.8523298959086905    0.7592840191672852    0.8984985592713230
     0.9526495120810257    0.3592163594239433    0.0999679552437274
     0.2581719361108843    0.3531981317839873    0.3985051858513809
     0.1384897448852841    0.5459088149569240    0.3986048650839688
     0.1464773136610104    0.2410681659721831    0.0999664593975522
     0.2747704356557852    0.8103860023033126    0.0052233446168614
     0.8054646261435471    0.7696734729824491    0.4935177487835905
     0.6867941870129095    0.2236812505480339    0.4941797213472541
     0.7283198467318118    0.6951388989218712    0.0045653948711667
     0.7233895723598296    0.1875456347815891    0.9939360715886046
     0.1940308046921982    0.2296296672748823    0.5047599530035257
     0.3088643933932455    0.7756926114768942    0.5049417663504973
     0.2696013011499545    0.3067515765869581    0.9938940057516872
     0.3225979194066370    0.7622649207884341    0.1532081350173084
     0.6098750677634837    0.6706425165258472    0.3452959039148170
     0.7343790016639484    0.1736001036278157    0.3460179530401556
     0.8275058363471264    0.8911886455644442    0.1525860539265331
     0.6735587955218092    0.2347903635751003    0.8456656221872757
     0.3901067242450167    0.3291762265667529    0.6527714714470026
     0.2608902846936448    0.8238575337128138    0.6529787269390521
     0.1710244756242770    0.1110933075215584    0.8456954819891168
     0.2502424917106045    0.9356988196232228    0.2606052120157183
     0.6750047104590509    0.4895057688098727    0.2382263030735227
     0.5620563067142667    0.2468107705343541    0.2384700951867409
     0.0065264966555832    0.8249725985693906    0.2603359325653494
     0.7471302209241280    0.0623899937515783    0.7383985089392106
     0.3240181276416784    0.5084540671346606    0.7604492458419458
     0.4346465318724276    0.7520587205210020    0.7605237172646531
     0.9898118889735633    0.1756467594712412    0.7382972920175739
 
  0.00000000E+00  0.00000000E+00  0.00000000E+00
  0.00000000E+00  0.00000000E+00  0.00000000E+00
  0.00000000E+00  0.00000000E+00  0.00000000E+00
  0.00000000E+00  0.00000000E+00  0.00000000E+00
  0.00000000E+00  0.00000000E+00  0.00000000E+00
  0.00000000E+00  0.00000000E+00  0.00000000E+00
  0.00000000E+00  0.00000000E+00  0.00000000E+00
  0.00000000E+00  0.00000000E+00  0.00000000E+00
  0.00000000E+00  0.00000000E+00  0.00000000E+00
  0.00000000E+00  0.00000000E+00  0.00000000E+00
  0.00000000E+00  0.00000000E+00  0.00000000E+00
  0.00000000E+00  0.00000000E+00  0.00000000E+00
  0.00000000E+00  0.00000000E+00  0.00000000E+00
  0.00000000E+00  0.00000000E+00  0.00000000E+00
  0.00000000E+00  0.00000000E+00  0.00000000E+00
  0.00000000E+00  0.00000000E+00  0.00000000E+00
  0.00000000E+00  0.00000000E+00  0.00000000E+00
  0.00000000E+00  0.00000000E+00  0.00000000E+00
  0.00000000E+00  0.00000000E+00  0.00000000E+00
  0.00000000E+00  0.00000000E+00  0.00000000E+00
  0.00000000E+00  0.00000000E+00  0.00000000E+00
  0.00000000E+00  0.00000000E+00  0.00000000E+00
  0.00000000E+00  0.00000000E+00  0.00000000E+00
  0.00000000E+00  0.00000000E+00  0.00000000E+00
  0.00000000E+00  0.00000000E+00  0.00000000E+00
  0.00000000E+00  0.00000000E+00  0.00000000E+00
  0.00000000E+00  0.00000000E+00  0.00000000E+00
  0.00000000E+00  0.00000000E+00  0.00000000E+00
  0.00000000E+00  0.00000000E+00  0.00000000E+00
  0.00000000E+00  0.00000000E+00  0.00000000E+00
  0.00000000E+00  0.00000000E+00  0.00000000E+00
  0.00000000E+00  0.00000000E+00  0.00000000E+00
