S32
1.0
   8.5799528831    0.0000000000    0.0000000000
  -1.7793860850    8.3934312143    0.0000000000
  -3.4057328833   -4.1919305429   12.3251076835
S
32
direct
   0.0456905523    0.6465802565    0.9030828352 S
   0.7414846597    0.6423468599    0.5955923947 S
   0.8517803329    0.4526573537    0.5963297975 S
   0.8567456812    0.7581617884    0.9026962161 S
   0.9526734359    0.3531109104    0.0953711935 S
   0.2562278661    0.3574970233    0.4028747374 S
   0.1442473028    0.5461066000    0.4028611790 S
   0.1427350348    0.2431560008    0.0956489115 S
   0.2685564739    0.8141690019    0.0093324190 S
   0.8047258488    0.7587190486    0.4896706010 S
   0.6833372803    0.2299379125    0.4905417170 S
   0.7387100096    0.6958945672    0.0080948993 S
   0.7301766051    0.1839792537    0.9897533793 S
   0.1946912632    0.2402639957    0.5088262255 S
   0.3116282303    0.7692594017    0.5088139254 S
   0.2594992901    0.3060356669    0.9898372091 S
   0.3144030851    0.7659414578    0.1540225513 S
   0.6122133491    0.6612340853    0.3447786612 S
   0.7317547641    0.1818302244    0.3459595908 S
   0.8356992886    0.8884873361    0.1528589658 S
   0.6818763741    0.2313513669    0.8447654810 S
   0.3877929047    0.3382008437    0.6534169424 S
   0.2636764892    0.8155095016    0.6535531297 S
   0.1622416860    0.1134704858    0.8450578612 S
   0.2463909761    0.9341726884    0.2602469449 S
   0.6733495017    0.4860957938    0.2385966362 S
   0.5644417988    0.2496659114    0.2388760888 S
   0.0091719833    0.8267269208    0.2598971133 S
   0.7504878698    0.0641421020    0.7383125937 S
   0.3260278692    0.5116341462    0.7603075348 S
   0.4327227918    0.7488257458    0.7602627104 S
   0.9869054015    0.1739027489    0.7383995538 S
