Cs26 Cl27                               
    1.000000000000000     
    12.2263459171999997    0.0000000000000000    0.0000000000000000
     0.0000000000000000   12.2263459171999997    0.0000000000000000
     0.0000000000000000    0.0000000000000000   12.2263459171999997
   Cs   Cl
    26    27
Direct
     0.9998715169404976    0.9995861426271726    0.3164601495745860
     0.0000212660732103    0.0000594710583471    0.6840077224602926
     0.9997573243817769    0.3158375350521497    0.0001593362870795
     0.9998469215855287    0.3333413315241143    0.3340892102833529
     0.9998588697274728    0.3339630713648056    0.6660022027045501
     0.9999382713938293    0.6824504073589213    0.9999874516912703
     0.9999125665161547    0.6657983359123805    0.3338335078042937
     0.0001778413057853    0.6660407449601082    0.6659268383651008
     0.3194320515708733    0.9999269249584674    0.9999040285735414
     0.3330138071964538    0.9999025273159796    0.3338601721943826
     0.3332104749135684    0.9999650539401684    0.6662116821562341
     0.3331658497961691    0.3337663620463184    0.0002013893816162
     0.3336761847023441    0.3340342705477987    0.3343551222897340
     0.3337087256631214    0.3340615035182789    0.6658998570713993
     0.3328722058614448    0.6660631466209134    0.9998623299104031
     0.3338753678544952    0.6659163580977980    0.3339861206983302
     0.3339866640933116    0.6657833794116099    0.6656404675729809
     0.6828730093658685    0.9998460744563877    0.0003096096237133
     0.6661889148926340    0.9995383811745128    0.3342399580149293
     0.6665662498145221    0.9999330120593728    0.6665041568859502
     0.6661775356878926    0.3337893506501411    0.9999635797048076
     0.6656706725499537    0.3337386215993437    0.3345586843039804
     0.6656126190864203    0.3342780115239333    0.6653257435416746
     0.6651182187627621    0.6660104429474334    0.9999924585750720
     0.6658213900206470    0.6651200025142118    0.3347375285487870
     0.6659123855777738    0.6657398114503865    0.6657717767298855
     0.1730834185996154    0.1723042257871160    0.1725228563170322
     0.1660765922549239    0.1660735289891651    0.5003980253075118
     0.1732985967730543    0.1724348352713845    0.8277510068295949
     0.1660307181862756    0.4996693756978056    0.1665990254007749
     0.1664415480658397    0.4998279362670032    0.4998691265146851
     0.1660188308692930    0.4997878669595239    0.8335560206382633
     0.1729533242545460    0.8272690166948748    0.1719672606452314
     0.1662163216585184    0.8333416580485895    0.4995567253771773
     0.1731604809963448    0.8272378489925427    0.8275222329300090
     0.4997916677197440    0.1665785690714323    0.1668407680876541
     0.4994525317785843    0.1662548347437953    0.5000961042666714
     0.5000120190305007    0.1666061017117008    0.8335177334911386
     0.4990763498677117    0.4997697454264262    0.1667426607643426
     0.4997023664415011    0.4998604395455396    0.5000013120622054
     0.4990916459908371    0.4996809650162112    0.8333729157075707
     0.4999924963389602    0.8334344115277259    0.1666839702466381
     0.4994219651535028    0.8334482598166040    0.5001977174668035
     0.5003911902865003    0.8336041961913032    0.8335310809770579
     0.8273652218985486    0.1727319589279690    0.1732718745408336
     0.8330212873316958    0.1659108138717831    0.4998977519770793
     0.8269265012406234    0.1731220968696051    0.8271173177528336
     0.8323983127103730    0.4984629205997473    0.1668606324444842
     0.8334103497769650    0.4999859636891353    0.4999486207912055
     0.8322745414865726    0.4997185538667122    0.8332286179079536
     0.8268206193335893    0.8261328224031254    0.1731719411728013
     0.8329405495680213    0.8332282059690046    0.5004240175158374
     0.8278307896528593    0.8261913618531300    0.8270061255186711
 
  0.00000000E+00  0.00000000E+00  0.00000000E+00
  0.00000000E+00  0.00000000E+00  0.00000000E+00
  0.00000000E+00  0.00000000E+00  0.00000000E+00
  0.00000000E+00  0.00000000E+00  0.00000000E+00
  0.00000000E+00  0.00000000E+00  0.00000000E+00
  0.00000000E+00  0.00000000E+00  0.00000000E+00
  0.00000000E+00  0.00000000E+00  0.00000000E+00
  0.00000000E+00  0.00000000E+00  0.00000000E+00
  0.00000000E+00  0.00000000E+00  0.00000000E+00
  0.00000000E+00  0.00000000E+00  0.00000000E+00
  0.00000000E+00  0.00000000E+00  0.00000000E+00
  0.00000000E+00  0.00000000E+00  0.00000000E+00
  0.00000000E+00  0.00000000E+00  0.00000000E+00
  0.00000000E+00  0.00000000E+00  0.00000000E+00
  0.00000000E+00  0.00000000E+00  0.00000000E+00
  0.00000000E+00  0.00000000E+00  0.00000000E+00
  0.00000000E+00  0.00000000E+00  0.00000000E+00
  0.00000000E+00  0.00000000E+00  0.00000000E+00
  0.00000000E+00  0.00000000E+00  0.00000000E+00
  0.00000000E+00  0.00000000E+00  0.00000000E+00
  0.00000000E+00  0.00000000E+00  0.00000000E+00
  0.00000000E+00  0.00000000E+00  0.00000000E+00
  0.00000000E+00  0.00000000E+00  0.00000000E+00
  0.00000000E+00  0.00000000E+00  0.00000000E+00
  0.00000000E+00  0.00000000E+00  0.00000000E+00
  0.00000000E+00  0.00000000E+00  0.00000000E+00
  0.00000000E+00  0.00000000E+00  0.00000000E+00
  0.00000000E+00  0.00000000E+00  0.00000000E+00
  0.00000000E+00  0.00000000E+00  0.00000000E+00
  0.00000000E+00  0.00000000E+00  0.00000000E+00
  0.00000000E+00  0.00000000E+00  0.00000000E+00
  0.00000000E+00  0.00000000E+00  0.00000000E+00
  0.00000000E+00  0.00000000E+00  0.00000000E+00
  0.00000000E+00  0.00000000E+00  0.00000000E+00
  0.00000000E+00  0.00000000E+00  0.00000000E+00
  0.00000000E+00  0.00000000E+00  0.00000000E+00
  0.00000000E+00  0.00000000E+00  0.00000000E+00
  0.00000000E+00  0.00000000E+00  0.00000000E+00
  0.00000000E+00  0.00000000E+00  0.00000000E+00
  0.00000000E+00  0.00000000E+00  0.00000000E+00
  0.00000000E+00  0.00000000E+00  0.00000000E+00
  0.00000000E+00  0.00000000E+00  0.00000000E+00
  0.00000000E+00  0.00000000E+00  0.00000000E+00
  0.00000000E+00  0.00000000E+00  0.00000000E+00
  0.00000000E+00  0.00000000E+00  0.00000000E+00
  0.00000000E+00  0.00000000E+00  0.00000000E+00
  0.00000000E+00  0.00000000E+00  0.00000000E+00
  0.00000000E+00  0.00000000E+00  0.00000000E+00
  0.00000000E+00  0.00000000E+00  0.00000000E+00
  0.00000000E+00  0.00000000E+00  0.00000000E+00
  0.00000000E+00  0.00000000E+00  0.00000000E+00
  0.00000000E+00  0.00000000E+00  0.00000000E+00
  0.00000000E+00  0.00000000E+00  0.00000000E+00
