Na1 Zn53 O54                            
    1.000000000000000     
     9.7481175735000001    0.0000000000000000    0.0000000000000000
    -4.8740587867000000    8.4421174577000002    0.0000000000000000
     0.0000000000000000    0.0000000000000000   15.6316036913000005
   Zn   O    Na
    53    54     1
Direct
     0.1110875224961723    0.2222649921477405    0.3320811681900740
     0.1099020701923988    0.2233637500410408    0.6659132238895438
     0.1120816363604199    0.5546717445578425    0.9998295679645025
     0.1106497516593150    0.5555041878638156    0.3340129076249285
     0.1107322328581856    0.5553679628472251    0.6657107742832882
     0.1011046671130969    0.8718945930717598    0.0040406679505193
     0.1109214989388895    0.8881690223487054    0.3348814579642211
     0.1101225222275299    0.8871480287736269    0.6648239788248952
     0.4610238048871425    0.2318501696016028    0.0039735579746515
     0.4451219905007055    0.2223713375717382    0.3348678184005679
     0.4461193956857353    0.2231442092730517    0.6648397813419437
     0.4432262426653771    0.5578313929402867    0.0007905607022706
     0.4447228912331897    0.5560165132510951    0.3340970297728461
     0.4444816596264626    0.5559010664213472    0.6655479365824092
     0.4447503737982187    0.8882986361202515    0.9999467097241567
     0.4445239673696553    0.8887812736978283    0.3336574578956208
     0.4447084990420119    0.8885748012074443    0.6668186326902172
     0.7783161387506088    0.2209469163287423    0.9998559230217481
     0.7778338166081578    0.2226515262336869    0.3340014368229325
     0.7779629543891676    0.2225701478647899    0.6657053803478857
     0.7774084123714583    0.5556850940869350    0.0003981747425517
     0.7780289920542389    0.5551654605037292    0.3336915677359106
     0.7778863424187461    0.5553409964816430    0.6670445009590104
     0.7750054882989550    0.8895568765295756    0.0008022351126213
     0.7772957824859633    0.8885591801239870    0.3341125401286267
     0.7773514317517294    0.8887045366669392    0.6655415788751564
     0.2220649398140808    0.1110900586280407    0.1700071575464281
     0.2218536751491660    0.1114559209699541    0.5002829708801143
     0.2219496509843187    0.1111782662281951    0.8215141591813832
     0.2216443097335622    0.4434595935849778    0.1682122645378816
     0.2220262025431770    0.4441031335096754    0.4992996000722372
     0.2235369241974018    0.4478451549505382    0.8331033192039612
     0.2228633846292891    0.7769522488440648    0.1680083521362929
     0.2226176210889884    0.7777257723890452    0.5000965759112246
     0.2220737226933211    0.7766167974861827    0.8326425119107264
     0.5562873572710908    0.1104135718011938    0.1679801809090894
     0.5556131556884302    0.1107138899335694    0.5001076808554351
     0.5565512310538622    0.1110680128876834    0.8326596044836977
     0.5555803983836312    0.4457414832952123    0.1682606211499811
     0.5559747214483108    0.4448886670221957    0.5000542128408731
     0.5553647228962111    0.4457007168828676    0.8326999877169454
     0.5554312170618491    0.7777224570265830    0.1672335819345412
     0.5554216862991869    0.7778939360785493    0.4999126805468613
     0.5558564416245070    0.7771927379628060    0.8334564844629785
     0.8896873388863590    0.1114349946237181    0.1682279172770580
     0.8892088197609266    0.1113023870331671    0.4993012250854859
     0.8851307859778441    0.1094302831708468    0.8330398206821025
     0.8893301221800189    0.4439139192108484    0.1667066968714470
     0.8887548747137421    0.4445594752343237    0.4999956943467822
     0.8890594551598703    0.4440737947216341    0.8334707192708428
     0.8873702814845449    0.7775155797448807    0.1682897036922854
     0.8884257719149103    0.7773108909988612    0.5000233959849060
     0.8874255078942384    0.7776986671531192    0.8326885754612855
     0.1118319949555054    0.2212719510550890    0.1389816571345069
     0.1112490745438338    0.2220924717797547    0.4602811991416380
     0.1102698506030826    0.2227225236277880    0.7940018891274790
     0.1113820222315932    0.5561570988618306    0.1273182856107496
     0.1108686351118769    0.5558097634427980    0.4610053749700533
     0.1097392010281865    0.5561662699319102    0.7922611859369539
     0.1108433245312535    0.8885842852347124    0.1283381491530699
     0.1110488992229469    0.8887032076175061    0.4618537684043377
     0.1100147455084637    0.8874698456816840    0.7927027514121650
     0.4445285316617172    0.2222889533627823    0.1282778908255195
     0.4446051735316832    0.2222742151039685    0.4618567382879258
     0.4455931403131613    0.2230946328182692    0.7927230601138601
     0.4446440268257875    0.5557539948641814    0.1280909565931160
     0.4448503137622942    0.5557713658808239    0.4610764007776385
     0.4455564879268982    0.5560312368967448    0.7919883711348091
     0.4441788832677607    0.8890327423778926    0.1271994126256732
     0.4444112480292873    0.8889114515146375    0.4605351479479431
     0.4442969937218610    0.8888308665384809    0.7938384919302423
     0.7771386568502188    0.2218425572105428    0.1273356714721586
     0.7775089633616595    0.2224599584250980    0.4609912676461725
     0.7770223237486116    0.2234267260823871    0.7922551307958887
     0.7776073075494626    0.5555414268872921    0.1274431270170646
     0.7777717943150337    0.5554729384675695    0.4605145318419789
     0.7776810977110835    0.5554308495590484    0.7941156338621853
     0.7774269863867567    0.8884548583184851    0.1280781004958975
     0.7775394715474335    0.8884623811767586    0.4610824071068554
     0.7770424651225704    0.8874395391608064    0.7919710257838470
     0.2234896842224459    0.1097871622669654    0.2968372994892050
     0.2219140217786072    0.1113557222073660    0.6282874136742115
     0.2382119637010825    0.0947113744853348    0.9537338819198005
     0.2231396360035657    0.4463732921582210    0.2959950682064202
     0.2220688573162044    0.4445345696800305    0.6265509367396179
     0.2318235515833378    0.4627077939938195    0.9562491463642119
     0.2221452061086848    0.7778055798738216    0.2945907947701156
     0.2228503443620014    0.7778922000114883    0.6270011739598215
     0.2220580979997901    0.7803534995283429    0.9599208933419890
     0.5555298920133916    0.1111667029960593    0.2945836198635777
     0.5554099490419241    0.1104414672038644    0.6270053862941184
     0.5526287781407967    0.1108208090177385    0.9599300242031032
     0.5556480400443264    0.4443196773961102    0.2948574744431010
     0.5562641311952854    0.4449980307784723    0.6269246415471977
     0.5552225935590509    0.4457961062786126    0.9603274247974666
     0.5555237225608594    0.7778107882799297    0.2942772955845258
     0.5552420157698547    0.7780068213848333    0.6265824816855170
     0.5546497855821493    0.7780979126386520    0.9600836278132411
     0.8869544997101788    0.1101348745308751    0.2959974418405015
     0.8887215694441406    0.1111540314683855    0.6265581257776307
     0.8697926037127928    0.1008620915129807    0.9561517294199535
     0.8888519534815368    0.4444388959184126    0.2939261199096604
     0.8885925059654028    0.4446919688790049    0.6267256202674583
     0.8880302932345976    0.4449500139510325    0.9608350793161098
     0.8889463200680597    0.7775930336190210    0.2948786837302229
     0.8882921700532336    0.7769639382037684    0.6269149096245786
     0.8872535341781416    0.7778376064259439    0.9603077123571799
     0.1080176145821584    0.2243316294029038    0.0011263964338098
 
  0.00000000E+00  0.00000000E+00  0.00000000E+00
  0.00000000E+00  0.00000000E+00  0.00000000E+00
  0.00000000E+00  0.00000000E+00  0.00000000E+00
  0.00000000E+00  0.00000000E+00  0.00000000E+00
  0.00000000E+00  0.00000000E+00  0.00000000E+00
  0.00000000E+00  0.00000000E+00  0.00000000E+00
  0.00000000E+00  0.00000000E+00  0.00000000E+00
  0.00000000E+00  0.00000000E+00  0.00000000E+00
  0.00000000E+00  0.00000000E+00  0.00000000E+00
  0.00000000E+00  0.00000000E+00  0.00000000E+00
  0.00000000E+00  0.00000000E+00  0.00000000E+00
  0.00000000E+00  0.00000000E+00  0.00000000E+00
  0.00000000E+00  0.00000000E+00  0.00000000E+00
  0.00000000E+00  0.00000000E+00  0.00000000E+00
  0.00000000E+00  0.00000000E+00  0.00000000E+00
  0.00000000E+00  0.00000000E+00  0.00000000E+00
  0.00000000E+00  0.00000000E+00  0.00000000E+00
  0.00000000E+00  0.00000000E+00  0.00000000E+00
  0.00000000E+00  0.00000000E+00  0.00000000E+00
  0.00000000E+00  0.00000000E+00  0.00000000E+00
  0.00000000E+00  0.00000000E+00  0.00000000E+00
  0.00000000E+00  0.00000000E+00  0.00000000E+00
  0.00000000E+00  0.00000000E+00  0.00000000E+00
  0.00000000E+00  0.00000000E+00  0.00000000E+00
  0.00000000E+00  0.00000000E+00  0.00000000E+00
  0.00000000E+00  0.00000000E+00  0.00000000E+00
  0.00000000E+00  0.00000000E+00  0.00000000E+00
  0.00000000E+00  0.00000000E+00  0.00000000E+00
  0.00000000E+00  0.00000000E+00  0.00000000E+00
  0.00000000E+00  0.00000000E+00  0.00000000E+00
  0.00000000E+00  0.00000000E+00  0.00000000E+00
  0.00000000E+00  0.00000000E+00  0.00000000E+00
  0.00000000E+00  0.00000000E+00  0.00000000E+00
  0.00000000E+00  0.00000000E+00  0.00000000E+00
  0.00000000E+00  0.00000000E+00  0.00000000E+00
  0.00000000E+00  0.00000000E+00  0.00000000E+00
  0.00000000E+00  0.00000000E+00  0.00000000E+00
  0.00000000E+00  0.00000000E+00  0.00000000E+00
  0.00000000E+00  0.00000000E+00  0.00000000E+00
  0.00000000E+00  0.00000000E+00  0.00000000E+00
  0.00000000E+00  0.00000000E+00  0.00000000E+00
  0.00000000E+00  0.00000000E+00  0.00000000E+00
  0.00000000E+00  0.00000000E+00  0.00000000E+00
  0.00000000E+00  0.00000000E+00  0.00000000E+00
  0.00000000E+00  0.00000000E+00  0.00000000E+00
  0.00000000E+00  0.00000000E+00  0.00000000E+00
  0.00000000E+00  0.00000000E+00  0.00000000E+00
  0.00000000E+00  0.00000000E+00  0.00000000E+00
  0.00000000E+00  0.00000000E+00  0.00000000E+00
  0.00000000E+00  0.00000000E+00  0.00000000E+00
  0.00000000E+00  0.00000000E+00  0.00000000E+00
  0.00000000E+00  0.00000000E+00  0.00000000E+00
  0.00000000E+00  0.00000000E+00  0.00000000E+00
  0.00000000E+00  0.00000000E+00  0.00000000E+00
  0.00000000E+00  0.00000000E+00  0.00000000E+00
  0.00000000E+00  0.00000000E+00  0.00000000E+00
  0.00000000E+00  0.00000000E+00  0.00000000E+00
  0.00000000E+00  0.00000000E+00  0.00000000E+00
  0.00000000E+00  0.00000000E+00  0.00000000E+00
  0.00000000E+00  0.00000000E+00  0.00000000E+00
  0.00000000E+00  0.00000000E+00  0.00000000E+00
  0.00000000E+00  0.00000000E+00  0.00000000E+00
  0.00000000E+00  0.00000000E+00  0.00000000E+00
  0.00000000E+00  0.00000000E+00  0.00000000E+00
  0.00000000E+00  0.00000000E+00  0.00000000E+00
  0.00000000E+00  0.00000000E+00  0.00000000E+00
  0.00000000E+00  0.00000000E+00  0.00000000E+00
  0.00000000E+00  0.00000000E+00  0.00000000E+00
  0.00000000E+00  0.00000000E+00  0.00000000E+00
  0.00000000E+00  0.00000000E+00  0.00000000E+00
  0.00000000E+00  0.00000000E+00  0.00000000E+00
  0.00000000E+00  0.00000000E+00  0.00000000E+00
  0.00000000E+00  0.00000000E+00  0.00000000E+00
  0.00000000E+00  0.00000000E+00  0.00000000E+00
  0.00000000E+00  0.00000000E+00  0.00000000E+00
  0.00000000E+00  0.00000000E+00  0.00000000E+00
  0.00000000E+00  0.00000000E+00  0.00000000E+00
  0.00000000E+00  0.00000000E+00  0.00000000E+00
  0.00000000E+00  0.00000000E+00  0.00000000E+00
  0.00000000E+00  0.00000000E+00  0.00000000E+00
  0.00000000E+00  0.00000000E+00  0.00000000E+00
  0.00000000E+00  0.00000000E+00  0.00000000E+00
  0.00000000E+00  0.00000000E+00  0.00000000E+00
  0.00000000E+00  0.00000000E+00  0.00000000E+00
  0.00000000E+00  0.00000000E+00  0.00000000E+00
  0.00000000E+00  0.00000000E+00  0.00000000E+00
  0.00000000E+00  0.00000000E+00  0.00000000E+00
  0.00000000E+00  0.00000000E+00  0.00000000E+00
  0.00000000E+00  0.00000000E+00  0.00000000E+00
  0.00000000E+00  0.00000000E+00  0.00000000E+00
  0.00000000E+00  0.00000000E+00  0.00000000E+00
  0.00000000E+00  0.00000000E+00  0.00000000E+00
  0.00000000E+00  0.00000000E+00  0.00000000E+00
  0.00000000E+00  0.00000000E+00  0.00000000E+00
  0.00000000E+00  0.00000000E+00  0.00000000E+00
  0.00000000E+00  0.00000000E+00  0.00000000E+00
  0.00000000E+00  0.00000000E+00  0.00000000E+00
  0.00000000E+00  0.00000000E+00  0.00000000E+00
  0.00000000E+00  0.00000000E+00  0.00000000E+00
  0.00000000E+00  0.00000000E+00  0.00000000E+00
  0.00000000E+00  0.00000000E+00  0.00000000E+00
  0.00000000E+00  0.00000000E+00  0.00000000E+00
  0.00000000E+00  0.00000000E+00  0.00000000E+00
  0.00000000E+00  0.00000000E+00  0.00000000E+00
  0.00000000E+00  0.00000000E+00  0.00000000E+00
  0.00000000E+00  0.00000000E+00  0.00000000E+00
  0.00000000E+00  0.00000000E+00  0.00000000E+00
  0.00000000E+00  0.00000000E+00  0.00000000E+00
