Na1 Zn53 O54
1.0
   9.7481175735    0.0000000000    0.0000000000
  -4.8740587867    8.4421174577    0.0000000000
   0.0000000000    0.0000000000   15.6316036913
Zn O Na
53 54 1
direct
   0.1111111111    0.2222222222    0.3334807272 Zn
   0.1111111111    0.2222222222    0.6668140605 Zn
   0.1111111111    0.5555555556    0.0001473939 Zn
   0.1111111111    0.5555555556    0.3334807272 Zn
   0.1111111111    0.5555555556    0.6668140605 Zn
   0.1111111111    0.8888888889    0.0001473939 Zn
   0.1111111111    0.8888888889    0.3334807272 Zn
   0.1111111111    0.8888888889    0.6668140605 Zn
   0.4444444444    0.2222222222    0.0001473939 Zn
   0.4444444444    0.2222222222    0.3334807272 Zn
   0.4444444444    0.2222222222    0.6668140605 Zn
   0.4444444444    0.5555555556    0.0001473939 Zn
   0.4444444444    0.5555555556    0.3334807272 Zn
   0.4444444444    0.5555555556    0.6668140605 Zn
   0.4444444444    0.8888888889    0.0001473939 Zn
   0.4444444444    0.8888888889    0.3334807272 Zn
   0.4444444444    0.8888888889    0.6668140605 Zn
   0.7777777778    0.2222222222    0.0001473939 Zn
   0.7777777778    0.2222222222    0.3334807272 Zn
   0.7777777778    0.2222222222    0.6668140605 Zn
   0.7777777778    0.5555555556    0.0001473939 Zn
   0.7777777778    0.5555555556    0.3334807272 Zn
   0.7777777778    0.5555555556    0.6668140605 Zn
   0.7777777778    0.8888888889    0.0001473939 Zn
   0.7777777778    0.8888888889    0.3334807272 Zn
   0.7777777778    0.8888888889    0.6668140605 Zn
   0.2222222222    0.1111111111    0.1668140605 Zn
   0.2222222222    0.1111111111    0.5001473939 Zn
   0.2222222222    0.1111111111    0.8334807272 Zn
   0.2222222222    0.4444444444    0.1668140605 Zn
   0.2222222222    0.4444444444    0.5001473939 Zn
   0.2222222222    0.4444444444    0.8334807272 Zn
   0.2222222222    0.7777777778    0.1668140605 Zn
   0.2222222222    0.7777777778    0.5001473939 Zn
   0.2222222222    0.7777777778    0.8334807272 Zn
   0.5555555556    0.1111111111    0.1668140605 Zn
   0.5555555556    0.1111111111    0.5001473939 Zn
   0.5555555556    0.1111111111    0.8334807272 Zn
   0.5555555556    0.4444444444    0.1668140605 Zn
   0.5555555556    0.4444444444    0.5001473939 Zn
   0.5555555556    0.4444444444    0.8334807272 Zn
   0.5555555556    0.7777777778    0.1668140605 Zn
   0.5555555556    0.7777777778    0.5001473939 Zn
   0.5555555556    0.7777777778    0.8334807272 Zn
   0.8888888889    0.1111111111    0.1668140605 Zn
   0.8888888889    0.1111111111    0.5001473939 Zn
   0.8888888889    0.1111111111    0.8334807272 Zn
   0.8888888889    0.4444444444    0.1668140605 Zn
   0.8888888889    0.4444444444    0.5001473939 Zn
   0.8888888889    0.4444444444    0.8334807272 Zn
   0.8888888889    0.7777777778    0.1668140605 Zn
   0.8888888889    0.7777777778    0.5001473939 Zn
   0.8888888889    0.7777777778    0.8334807272 Zn
   0.1170201723    0.2194077187    0.1335990029 O
   0.1111111111    0.2222222222    0.4604859395 O
   0.1111111111    0.2222222222    0.7938192728 O
   0.1111111111    0.5555555556    0.1271526061 O
   0.1111111111    0.5555555556    0.4604859395 O
   0.1111111111    0.5555555556    0.7938192728 O
   0.1111111111    0.8888888889    0.1271526061 O
   0.1111111111    0.8888888889    0.4604859395 O
   0.1111111111    0.8888888889    0.7938192728 O
   0.4444444444    0.2222222222    0.1271526061 O
   0.4444444444    0.2222222222    0.4604859395 O
   0.4444444444    0.2222222222    0.7938192728 O
   0.4444444444    0.5555555556    0.1271526061 O
   0.4444444444    0.5555555556    0.4604859395 O
   0.4444444444    0.5555555556    0.7938192728 O
   0.4444444444    0.8888888889    0.1271526061 O
   0.4444444444    0.8888888889    0.4604859395 O
   0.4444444444    0.8888888889    0.7938192728 O
   0.7777777778    0.2222222222    0.1271526061 O
   0.7777777778    0.2222222222    0.4604859395 O
   0.7777777778    0.2222222222    0.7938192728 O
   0.7777777778    0.5555555556    0.1271526061 O
   0.7777777778    0.5555555556    0.4604859395 O
   0.7777777778    0.5555555556    0.7938192728 O
   0.7777777778    0.8888888889    0.1271526061 O
   0.7777777778    0.8888888889    0.4604859395 O
   0.7777777778    0.8888888889    0.7938192728 O
   0.2222222222    0.1111111111    0.2938192728 O
   0.2222222222    0.1111111111    0.6271526061 O
   0.2132329585    0.1126757513    0.9557742682 O
   0.2222222222    0.4444444444    0.2938192728 O
   0.2222222222    0.4444444444    0.6271526061 O
   0.2147338079    0.4351687105    0.9607824192 O
   0.2222222222    0.7777777778    0.2938192728 O
   0.2222222222    0.7777777778    0.6271526061 O
   0.2222222222    0.7777777778    0.9604859395 O
   0.5555555556    0.1111111111    0.2938192728 O
   0.5555555556    0.1111111111    0.6271526061 O
   0.5555555556    0.1111111111    0.9604859395 O
   0.5555555556    0.4444444444    0.2938192728 O
   0.5555555556    0.4444444444    0.6271526061 O
   0.5555555556    0.4444444444    0.9604859395 O
   0.5555555556    0.7777777778    0.2938192728 O
   0.5555555556    0.7777777778    0.6271526061 O
   0.5555555556    0.7777777778    0.9604859395 O
   0.8888888889    0.1111111111    0.2938192728 O
   0.8888888889    0.1111111111    0.6271526061 O
   0.8928568608    0.1104092422    0.9617950293 O
   0.8888888889    0.4444444444    0.2938192728 O
   0.8888888889    0.4444444444    0.6271526061 O
   0.8888888889    0.4444444444    0.9604859395 O
   0.8888888889    0.7777777778    0.2938192728 O
   0.8888888889    0.7777777778    0.6271526061 O
   0.8888888889    0.7777777778    0.9604859395 O
   0.1111111111    0.2222222222    0.0001473939 Na
