Cl4                                     
    1.000000000000000     
     3.4169426118241666   -1.9462113629268876   -0.0000000000000000
     3.4169426118241666    1.9462113629268876    0.0000000000000000
     0.0000000000000000    0.0000000000000001    8.0063110743085311
   Cl
     4
Direct
     0.8744751331165113    0.1255248668834889    0.6105663741442032
     0.1255248668834889    0.8744751331165113    0.3894336258557968
     0.6255248668834887    0.3744751331165110    0.1105663741442033
     0.3744751331165110    0.6255248668834887    0.8894336258557968
 
  0.00000000E+00  0.00000000E+00  0.00000000E+00
  0.00000000E+00  0.00000000E+00  0.00000000E+00
  0.00000000E+00  0.00000000E+00  0.00000000E+00
  0.00000000E+00  0.00000000E+00  0.00000000E+00
