Cl4
1.0
   3.2642055900   -2.0574717550    0.0000000000
   3.2642055900    2.0574717550    0.0000000000
   0.0000000000    0.0000000000    8.4023954700
Cl
4
direct
   0.8854753100    0.1145246900    0.6047529900 Cl
   0.1145246900    0.8854753100    0.3952470100 Cl
   0.6145246900    0.3854753100    0.1047529900 Cl
   0.3854753100    0.6145246900    0.8952470100 Cl
