Zn4 S4
1.0
   7.5631677474106098    0.0000000000000000    0.0000000000000000
  -1.8907919368526525    3.2749477011703583    0.0000000000000000
   0.0000000000000000    0.0000000000000000    6.2047662326306305
Zn S
4 4
direct
   0.3333333333333333    0.3333333333333333    0.5004008683295185 Zn
   0.8333333333333334    0.3333333333333333    0.5004008683295185 Zn
   0.1666666666666667    0.6666666666666666    0.0004008683295185 Zn
   0.6666666666666666    0.6666666666666666    0.0004008683295185 Zn
   0.3333333333333333    0.3333333333333333    0.8745991316704813 S
   0.8333333333333334    0.3333333333333333    0.8745991316704813 S
   0.1666666666666667    0.6666666666666666    0.3745991316704813 S
   0.6666666666666666    0.6666666666666666    0.3745991316704813 S
