Num irrep kpoints: 45
0
Gamma
5 5 6
0.0 0.0 0.5
