Nd2 Zn22
1.0
   6.2343869760   -5.2513138759    0.0000000000
   6.2343869760    5.2513138759    0.0000000000
  -3.6482902548    0.0000000000    5.6839761183
Nd Zn
2 22
direct
   0.7495709600    0.7495709600    0.3745477000 Nd
   0.2504290400    0.2504290400    0.6254523000 Nd
   0.1668106600    0.5778607800    0.4445707700 Zn
   0.3336132900    0.9224940400    0.2002436700 Zn
   0.2504502000    0.2504502000    0.1255237500 Zn
   0.7495498000    0.7495498000    0.8744762500 Zn
   0.0000000000    0.5000000000    0.0000000000 Zn
   0.0000000000    0.0000000000    0.0000000000 Zn
   0.5000000000    0.5000000000    0.5000000000 Zn
   0.5000000000    0.0000000000    0.0000000000 Zn
   0.9224940400    0.3336132900    0.2002436700 Zn
   0.8335020400    0.0776147600    0.2779085200 Zn
   0.6665367500    0.4228855800    0.8668211400 Zn
   0.5778607800    0.1668106600    0.4445707700 Zn
   0.5771144200    0.3334632500    0.1331788600 Zn
   0.9223852400    0.1664979600    0.7220914800 Zn
   0.6663867100    0.0775059600    0.7997563300 Zn
   0.8331893400    0.4221392200    0.5554292300 Zn
   0.0775059600    0.6663867100    0.7997563300 Zn
   0.1664979600    0.9223852400    0.7220914800 Zn
   0.3334632500    0.5771144200    0.1331788600 Zn
   0.4221392200    0.8331893400    0.5554292300 Zn
   0.4228855800    0.6665367500    0.8668211400 Zn
   0.0776147600    0.8335020400    0.2779085200 Zn
