# algorithm
ALGO  =  Normal

# accuracy
PREC   =  Normal
LREAL  =  Auto
EDIFF  =  1e-05
ENCUT  =  276.723
LASPH  =  True
NELM   =  100

# ionic relaxation
ISIF    =  2
IBRION  =  2
EDIFFG  =  -0.03
NSW     =  300

# occupation
ISMEAR  =  0
SIGMA   =  0.1

# spin
ISPIN  =  2

# IO control
LWAVE   =  False
LCHARG  =  False

# analyzer
LORBIT  =  10

# dft parameter
GGA  =  Ps

# electrostatic
NELECT  =  62.0

# parallel
KPAR  =  4