Na1 Zn54 O54                            
    1.000000000000000     
     9.7481175735000001    0.0000000000000000    0.0000000000000000
    -4.8740587867000000    8.4421174577000002    0.0000000000000000
     0.0000000000000000    0.0000000000000000   15.6316036913000005
   Zn   O    Na
    54    54     1
Direct
     0.1107371902555132    0.2214918668296769    0.0003147702761383
     0.1152324646350612    0.2301750577031971    0.3383423616687685
     0.1110745097799346    0.2222090517083971    0.6678247222328999
     0.1113097623840061    0.5554599136552133    0.9994590275545444
     0.1106906729362246    0.5544642612593623    0.3340668466265430
     0.1109992495035139    0.5553603353603553    0.6676922345147919
     0.1109449336664428    0.8886822491540817    0.0003570806759868
     0.1146807101207815    0.8831071039127839    0.3383803443554996
     0.1110355514257579    0.8886737604000590    0.6678326413452299
     0.4478084193421439    0.2238930722302714    0.9950242905746045
     0.4436453358938719    0.2211703667641403    0.3343929422492605
     0.4445950456957160    0.2222885221791956    0.6673536407172314
     0.4440652876658896    0.5553968410566321    0.9993612766666451
     0.4438030172483091    0.5547384144335525    0.3339276253134243
     0.4444775227052281    0.5555254145090671    0.6676222659954227
     0.4441895043221303    0.8886239263234937    0.9994474224479818
     0.4437071829429424    0.8883639322338610    0.3340256915972137
     0.4445102242590656    0.8889433610953715    0.6676472371335600
     0.7759632961261815    0.2239280703025529    0.9950255478796832
     0.7776520905130082    0.2215485065944297    0.3343086968927603
     0.7777660664824109    0.2223337569677430    0.6672474478533927
     0.7759558392193076    0.5519267606372302    0.9950735269841119
     0.7772284743931467    0.5549535430479240    0.3343939823893422
     0.7775957948993474    0.5552743602119529    0.6673170870249265
     0.7777904203171521    0.8887328715331164    0.0003264473789694
     0.7674280943741899    0.8834139263410871    0.3382459527265033
     0.7775701904047124    0.8888961591333048    0.6678427997667437
     0.2458741215095197    0.1216748811429534    0.1588405768827799
     0.2229085521740964    0.1109580400191436    0.5022000920343903
     0.2217127099355997    0.1108052368191052    0.8338203634755675
     0.2210776343365238    0.4421766946584827    0.1662666130014127
     0.2230561928664911    0.4458709064819761    0.5020560692602126
     0.2220118657197356    0.4439435214232075    0.8337889434390530
     0.2213442452346285    0.7768990705583527    0.1665090448564230
     0.2229532083725901    0.7764940478030290    0.5021080257571519
     0.2220836746736108    0.7778341123903826    0.8337050995672725
     0.5543879142725978    0.1087781112812118    0.1674150073428629
     0.5555976773930413    0.1110241171641458    0.5008064821044014
     0.5551013111347680    0.1101160559691265    0.8315816974911471
     0.5539865549983900    0.4446166824067846    0.1674479839032233
     0.5553852378487759    0.4442676107994619    0.5007896533971039
     0.5550143930371612    0.4449763383852478    0.8315574297705762
     0.5552433286357374    0.7771440650142534    0.1662100258122251
     0.5535409845669923    0.7767409383559688    0.5019919035751604
     0.5557654428786682    0.7778213662058999    0.8338343276151954
     0.8760076651628228    0.1220237189168434    0.1588500117015110
     0.8883642258477352    0.1112976492420047    0.5019965652848798
     0.8890088938159250    0.1108497737692389    0.8339082822521555
     0.8903999129844962    0.4447011095669318    0.1674293996466165
     0.8888747317208532    0.4444328314858764    0.5008149644659399
     0.8899063942196661    0.4448939481642612    0.8315730660905059
     0.8759602717676384    0.7524437941474373    0.1588637598364540
     0.8880313043505417    0.7767101621554594    0.5021728697594632
     0.8890606483857449    0.7782279727949551    0.8338152695816631
     0.1073771778338418    0.2145987116716789    0.1302462148306809
     0.1113168522716491    0.2221989088803732    0.4624566247706676
     0.1108541896363143    0.2218618246155756    0.7949601618755899
     0.1106455732467932    0.5544635050139786    0.1272064208377785
     0.1111561065963079    0.5552550678285152    0.4606052120647763
     0.1122251615948487    0.5559912000388499    0.7944556975924095
     0.1072872608821586    0.8905260427333330    0.1302386952645387
     0.1109725937253318    0.8881419895602642    0.4624658312619073
     0.1109628033128959    0.8889092353271084    0.7949443467917414
     0.4564756013134846    0.2277697108965658    0.1226831809491339
     0.4437845148031671    0.2216946526780740    0.4605982098673076
     0.4437329584141343    0.2218815212617031    0.7943894071880264
     0.4437725035244289    0.5546264308766005    0.1271139132729701
     0.4442846567791518    0.5554337256439752    0.4604772149412957
     0.4438067445002367    0.5560859466287170    0.7944331263360551
     0.4439351866191993    0.8884862237854951    0.1272059037500990
     0.4441768596858403    0.8887172511117299    0.4605430119104788
     0.4439285467536451    0.8877593465710810    0.7944528829212369
     0.7712639955991778    0.2277880205577097    0.1226527080457569
     0.7780045712525545    0.2219781674657136    0.4605223425722576
     0.7781402789285424    0.2218737269345177    0.7943189301982631
     0.7707659330163005    0.5419536182817729    0.1226778567457474
     0.7777698943166683    0.5557916662581563    0.4605901702578574
     0.7781001198450698    0.5562021159757683    0.7943783530398035
     0.7830806672092701    0.8909197343238189    0.1302308024446554
     0.7770865361504293    0.8884811360740500    0.4623609553889617
     0.7778690692703375    0.8889831374824063    0.7949915608505179
     0.2212199109352349    0.1096980998772537    0.2919875373568227
     0.2221850753926962    0.1109542327020643    0.6283662094670220
     0.2223118520367107    0.1108807001474889    0.9621739714827187
     0.2223552913385607    0.4446914749313145    0.2933044229233979
     0.2222284820652609    0.4444324812277804    0.6282071492129463
     0.2214106337114343    0.4429017333291715    0.9616229015629568
     0.2222420018155379    0.7761085428958345    0.2934750049451069
     0.2222152753216263    0.7775874541967791    0.6282851775915240
     0.2216691833210522    0.7780087529346950    0.9615605524914127
     0.5553179460827281    0.1106068246841378    0.2936273441044928
     0.5555115435358351    0.1110757314987884    0.6276233396096771
     0.5545444583226479    0.1091349090780520    0.9586519672637945
     0.5549323513435550    0.4434871730675837    0.2936602680394361
     0.5554609733687842    0.4443527761669541    0.6276108088533362
     0.5545481957693646    0.4453087657678034    0.9585850335401475
     0.5531814646307235    0.7762871213153598    0.2932201944257981
     0.5553862895454110    0.7776797766509138    0.6281152837174423
     0.5563226245620019    0.7780746697390932    0.9616776438027130
     0.8887378611001053    0.1100856321951842    0.2920301263265016
     0.8889112624633804    0.1110733246892025    0.6281615795717956
     0.8885084325826927    0.1109331075507354    0.9622341669474593
     0.8884161915278510    0.4438448415725081    0.2936218985695539
     0.8889818300913864    0.4445250117519729    0.6276202638562299
     0.8907507092712159    0.4453141968189523    0.9586251124676421
     0.8882246516223521    0.7773101901518085    0.2920313272264118
     0.8887812211784099    0.7777396929502401    0.6283317639027194
     0.8887027175007187    0.7774038455447090    0.9621957704379784
     0.9991888382246162    0.9987119568863042    0.2262643872849524
 
  0.00000000E+00  0.00000000E+00  0.00000000E+00
  0.00000000E+00  0.00000000E+00  0.00000000E+00
  0.00000000E+00  0.00000000E+00  0.00000000E+00
  0.00000000E+00  0.00000000E+00  0.00000000E+00
  0.00000000E+00  0.00000000E+00  0.00000000E+00
  0.00000000E+00  0.00000000E+00  0.00000000E+00
  0.00000000E+00  0.00000000E+00  0.00000000E+00
  0.00000000E+00  0.00000000E+00  0.00000000E+00
  0.00000000E+00  0.00000000E+00  0.00000000E+00
  0.00000000E+00  0.00000000E+00  0.00000000E+00
  0.00000000E+00  0.00000000E+00  0.00000000E+00
  0.00000000E+00  0.00000000E+00  0.00000000E+00
  0.00000000E+00  0.00000000E+00  0.00000000E+00
  0.00000000E+00  0.00000000E+00  0.00000000E+00
  0.00000000E+00  0.00000000E+00  0.00000000E+00
  0.00000000E+00  0.00000000E+00  0.00000000E+00
  0.00000000E+00  0.00000000E+00  0.00000000E+00
  0.00000000E+00  0.00000000E+00  0.00000000E+00
  0.00000000E+00  0.00000000E+00  0.00000000E+00
  0.00000000E+00  0.00000000E+00  0.00000000E+00
  0.00000000E+00  0.00000000E+00  0.00000000E+00
  0.00000000E+00  0.00000000E+00  0.00000000E+00
  0.00000000E+00  0.00000000E+00  0.00000000E+00
  0.00000000E+00  0.00000000E+00  0.00000000E+00
  0.00000000E+00  0.00000000E+00  0.00000000E+00
  0.00000000E+00  0.00000000E+00  0.00000000E+00
  0.00000000E+00  0.00000000E+00  0.00000000E+00
  0.00000000E+00  0.00000000E+00  0.00000000E+00
  0.00000000E+00  0.00000000E+00  0.00000000E+00
  0.00000000E+00  0.00000000E+00  0.00000000E+00
  0.00000000E+00  0.00000000E+00  0.00000000E+00
  0.00000000E+00  0.00000000E+00  0.00000000E+00
  0.00000000E+00  0.00000000E+00  0.00000000E+00
  0.00000000E+00  0.00000000E+00  0.00000000E+00
  0.00000000E+00  0.00000000E+00  0.00000000E+00
  0.00000000E+00  0.00000000E+00  0.00000000E+00
  0.00000000E+00  0.00000000E+00  0.00000000E+00
  0.00000000E+00  0.00000000E+00  0.00000000E+00
  0.00000000E+00  0.00000000E+00  0.00000000E+00
  0.00000000E+00  0.00000000E+00  0.00000000E+00
  0.00000000E+00  0.00000000E+00  0.00000000E+00
  0.00000000E+00  0.00000000E+00  0.00000000E+00
  0.00000000E+00  0.00000000E+00  0.00000000E+00
  0.00000000E+00  0.00000000E+00  0.00000000E+00
  0.00000000E+00  0.00000000E+00  0.00000000E+00
  0.00000000E+00  0.00000000E+00  0.00000000E+00
  0.00000000E+00  0.00000000E+00  0.00000000E+00
  0.00000000E+00  0.00000000E+00  0.00000000E+00
  0.00000000E+00  0.00000000E+00  0.00000000E+00
  0.00000000E+00  0.00000000E+00  0.00000000E+00
  0.00000000E+00  0.00000000E+00  0.00000000E+00
  0.00000000E+00  0.00000000E+00  0.00000000E+00
  0.00000000E+00  0.00000000E+00  0.00000000E+00
  0.00000000E+00  0.00000000E+00  0.00000000E+00
  0.00000000E+00  0.00000000E+00  0.00000000E+00
  0.00000000E+00  0.00000000E+00  0.00000000E+00
  0.00000000E+00  0.00000000E+00  0.00000000E+00
  0.00000000E+00  0.00000000E+00  0.00000000E+00
  0.00000000E+00  0.00000000E+00  0.00000000E+00
  0.00000000E+00  0.00000000E+00  0.00000000E+00
  0.00000000E+00  0.00000000E+00  0.00000000E+00
  0.00000000E+00  0.00000000E+00  0.00000000E+00
  0.00000000E+00  0.00000000E+00  0.00000000E+00
  0.00000000E+00  0.00000000E+00  0.00000000E+00
  0.00000000E+00  0.00000000E+00  0.00000000E+00
  0.00000000E+00  0.00000000E+00  0.00000000E+00
  0.00000000E+00  0.00000000E+00  0.00000000E+00
  0.00000000E+00  0.00000000E+00  0.00000000E+00
  0.00000000E+00  0.00000000E+00  0.00000000E+00
  0.00000000E+00  0.00000000E+00  0.00000000E+00
  0.00000000E+00  0.00000000E+00  0.00000000E+00
  0.00000000E+00  0.00000000E+00  0.00000000E+00
  0.00000000E+00  0.00000000E+00  0.00000000E+00
  0.00000000E+00  0.00000000E+00  0.00000000E+00
  0.00000000E+00  0.00000000E+00  0.00000000E+00
  0.00000000E+00  0.00000000E+00  0.00000000E+00
  0.00000000E+00  0.00000000E+00  0.00000000E+00
  0.00000000E+00  0.00000000E+00  0.00000000E+00
  0.00000000E+00  0.00000000E+00  0.00000000E+00
  0.00000000E+00  0.00000000E+00  0.00000000E+00
  0.00000000E+00  0.00000000E+00  0.00000000E+00
  0.00000000E+00  0.00000000E+00  0.00000000E+00
  0.00000000E+00  0.00000000E+00  0.00000000E+00
  0.00000000E+00  0.00000000E+00  0.00000000E+00
  0.00000000E+00  0.00000000E+00  0.00000000E+00
  0.00000000E+00  0.00000000E+00  0.00000000E+00
  0.00000000E+00  0.00000000E+00  0.00000000E+00
  0.00000000E+00  0.00000000E+00  0.00000000E+00
  0.00000000E+00  0.00000000E+00  0.00000000E+00
  0.00000000E+00  0.00000000E+00  0.00000000E+00
  0.00000000E+00  0.00000000E+00  0.00000000E+00
  0.00000000E+00  0.00000000E+00  0.00000000E+00
  0.00000000E+00  0.00000000E+00  0.00000000E+00
  0.00000000E+00  0.00000000E+00  0.00000000E+00
  0.00000000E+00  0.00000000E+00  0.00000000E+00
  0.00000000E+00  0.00000000E+00  0.00000000E+00
  0.00000000E+00  0.00000000E+00  0.00000000E+00
  0.00000000E+00  0.00000000E+00  0.00000000E+00
  0.00000000E+00  0.00000000E+00  0.00000000E+00
  0.00000000E+00  0.00000000E+00  0.00000000E+00
  0.00000000E+00  0.00000000E+00  0.00000000E+00
  0.00000000E+00  0.00000000E+00  0.00000000E+00
  0.00000000E+00  0.00000000E+00  0.00000000E+00
  0.00000000E+00  0.00000000E+00  0.00000000E+00
  0.00000000E+00  0.00000000E+00  0.00000000E+00
  0.00000000E+00  0.00000000E+00  0.00000000E+00
  0.00000000E+00  0.00000000E+00  0.00000000E+00
  0.00000000E+00  0.00000000E+00  0.00000000E+00
  0.00000000E+00  0.00000000E+00  0.00000000E+00
