Num irrep kpoints: 94
0
Gamma
8 8 8
0.5 0.5 0.5
