Nd2 Zn4
1.0
  -2.2901096342    3.7236311569    3.7129914578
   2.2901096342   -3.7236311569    3.7129914578
   2.2901096342    3.7236311569   -3.7129914578
Nd Zn
2 4
direct
   0.7094251500    0.4594251500    0.2500000000 Nd
   0.2905748500    0.5405748500    0.7500000000 Nd
   0.7228063000    0.1648486650    0.5579576350 Zn
   0.2771937000    0.8351513350    0.4420423650 Zn
   0.1068910300    0.1648486650    0.9420423650 Zn
   0.8931089700    0.8351513350    0.0579576350 Zn
