k-path added by seekpath. Formula: ZnS SG: 186 
276
Reciprocal
 0.00000000000000000  0.00000000000000000  0.12500000000000000   2 None
 0.16666666666666666  0.00000000000000000  0.12500000000000000  12 None
 0.33333333333333331  0.00000000000000000  0.12500000000000000  12 None
 0.50000000000000000  0.00000000000000000  0.12500000000000000   6 None
 0.16666666666666666  0.16666666666666666  0.12500000000000000  12 None
 0.33333333333333331  0.16666666666666666  0.12500000000000000  24 None
 0.33333333333333331  0.33333333333333331  0.12500000000000000   4 None
 0.00000000000000000  0.00000000000000000  0.37500000000000000   2 None
 0.16666666666666666  0.00000000000000000  0.37500000000000000  12 None
 0.33333333333333331  0.00000000000000000  0.37500000000000000  12 None
 0.50000000000000000  0.00000000000000000  0.37500000000000000   6 None
 0.16666666666666666  0.16666666666666666  0.37500000000000000  12 None
 0.33333333333333331  0.16666666666666666  0.37500000000000000  24 None
 0.33333333333333331  0.33333333333333331  0.37500000000000000   4 None
 0.00000000000000000  0.00000000000000000  0.00000000000000000   0 GAMMA
 0.01351351351351351  0.00000000000000000  0.00000000000000000   0 
 0.02702702702702703  0.00000000000000000  0.00000000000000000   0 
 0.04054054054054054  0.00000000000000000  0.00000000000000000   0 
 0.05405405405405405  0.00000000000000000  0.00000000000000000   0 
 0.06756756756756756  0.00000000000000000  0.00000000000000000   0 
 0.08108108108108107  0.00000000000000000  0.00000000000000000   0 
 0.09459459459459459  0.00000000000000000  0.00000000000000000   0 
 0.10810810810810810  0.00000000000000001  0.00000000000000000   0 
 0.12162162162162160  0.00000000000000001  0.00000000000000000   0 
 0.13513513513513511  0.00000000000000001  0.00000000000000000   0 
 0.14864864864864863  0.00000000000000001  0.00000000000000000   0 
 0.16216216216216214  0.00000000000000001  0.00000000000000000   0 
 0.17567567567567566  0.00000000000000001  0.00000000000000000   0 
 0.18918918918918917  0.00000000000000001  0.00000000000000000   0 
 0.20270270270270269  0.00000000000000001  0.00000000000000000   0 
 0.21621621621621620  0.00000000000000001  0.00000000000000000   0 
 0.22972972972972969  0.00000000000000001  0.00000000000000000   0 
 0.24324324324324320  0.00000000000000001  0.00000000000000000   0 
 0.25675675675675669  0.00000000000000001  0.00000000000000000   0 
 0.27027027027027023  0.00000000000000001  0.00000000000000000   0 
 0.28378378378378372  0.00000000000000001  0.00000000000000000   0 
 0.29729729729729726  0.00000000000000002  0.00000000000000000   0 
 0.31081081081081074  0.00000000000000002  0.00000000000000000   0 
 0.32432432432432429  0.00000000000000002  0.00000000000000000   0 
 0.33783783783783777  0.00000000000000002  0.00000000000000000   0 
 0.35135135135135132  0.00000000000000002  0.00000000000000000   0 
 0.36486486486486480  0.00000000000000002  0.00000000000000000   0 
 0.37837837837837834  0.00000000000000002  0.00000000000000000   0 
 0.39189189189189183  0.00000000000000002  0.00000000000000000   0 
 0.40540540540540537  0.00000000000000002  0.00000000000000000   0 
 0.41891891891891886  0.00000000000000002  0.00000000000000000   0 
 0.43243243243243240  0.00000000000000002  0.00000000000000000   0 
 0.44594594594594583  0.00000000000000002  0.00000000000000000   0 
 0.45945945945945937  0.00000000000000002  0.00000000000000000   0 
 0.47297297297297286  0.00000000000000002  0.00000000000000000   0 
 0.48648648648648640  0.00000000000000002  0.00000000000000000   0 
 0.49999999999999989  0.00000000000000003  0.00000000000000000   0 M
 0.49206349206349204  0.01587301587301590  0.00000000000000000   0 
 0.48412698412698407  0.03174603174603177  0.00000000000000000   0 
 0.47619047619047616  0.04761904761904764  0.00000000000000000   0 
 0.46825396825396820  0.06349206349206352  0.00000000000000000   0 
 0.46031746031746029  0.07936507936507939  0.00000000000000000   0 
 0.45238095238095233  0.09523809523809526  0.00000000000000000   0 
 0.44444444444444442  0.11111111111111112  0.00000000000000000   0 
 0.43650793650793646  0.12698412698412700  0.00000000000000000   0 
 0.42857142857142855  0.14285714285714288  0.00000000000000000   0 
 0.42063492063492058  0.15873015873015875  0.00000000000000000   0 
 0.41269841269841268  0.17460317460317462  0.00000000000000000   0 
 0.40476190476190471  0.19047619047619049  0.00000000000000000   0 
 0.39682539682539680  0.20634920634920637  0.00000000000000000   0 
 0.38888888888888884  0.22222222222222221  0.00000000000000000   0 
 0.38095238095238093  0.23809523809523811  0.00000000000000000   0 
 0.37301587301587302  0.25396825396825395  0.00000000000000000   0 
 0.36507936507936506  0.26984126984126983  0.00000000000000000   0 
 0.35714285714285710  0.28571428571428570  0.00000000000000000   0 
 0.34920634920634919  0.30158730158730157  0.00000000000000000   0 
 0.34126984126984128  0.31746031746031744  0.00000000000000000   0 
 0.33333333333333331  0.33333333333333331  0.00000000000000000   0 K
 0.32558139534883718  0.32558139534883718  0.00000000000000000   0 
 0.31782945736434109  0.31782945736434109  0.00000000000000000   0 
 0.31007751937984496  0.31007751937984496  0.00000000000000000   0 
 0.30232558139534882  0.30232558139534882  0.00000000000000000   0 
 0.29457364341085268  0.29457364341085268  0.00000000000000000   0 
 0.28682170542635654  0.28682170542635654  0.00000000000000000   0 
 0.27906976744186046  0.27906976744186046  0.00000000000000000   0 
 0.27131782945736432  0.27131782945736432  0.00000000000000000   0 
 0.26356589147286819  0.26356589147286819  0.00000000000000000   0 
 0.25581395348837210  0.25581395348837210  0.00000000000000000   0 
 0.24806201550387597  0.24806201550387597  0.00000000000000000   0 
 0.24031007751937983  0.24031007751937983  0.00000000000000000   0 
 0.23255813953488369  0.23255813953488369  0.00000000000000000   0 
 0.22480620155038761  0.22480620155038761  0.00000000000000000   0 
 0.21705426356589147  0.21705426356589147  0.00000000000000000   0 
 0.20930232558139533  0.20930232558139533  0.00000000000000000   0 
 0.20155038759689922  0.20155038759689922  0.00000000000000000   0 
 0.19379844961240308  0.19379844961240308  0.00000000000000000   0 
 0.18604651162790697  0.18604651162790697  0.00000000000000000   0 
 0.17829457364341084  0.17829457364341084  0.00000000000000000   0 
 0.17054263565891470  0.17054263565891470  0.00000000000000000   0 
 0.16279069767441859  0.16279069767441859  0.00000000000000000   0 
 0.15503875968992248  0.15503875968992248  0.00000000000000000   0 
 0.14728682170542634  0.14728682170542634  0.00000000000000000   0 
 0.13953488372093023  0.13953488372093023  0.00000000000000000   0 
 0.13178294573643409  0.13178294573643409  0.00000000000000000   0 
 0.12403100775193796  0.12403100775193796  0.00000000000000000   0 
 0.11627906976744187  0.11627906976744187  0.00000000000000000   0 
 0.10852713178294573  0.10852713178294573  0.00000000000000000   0 
 0.10077519379844960  0.10077519379844960  0.00000000000000000   0 
 0.09302325581395349  0.09302325581395349  0.00000000000000000   0 
 0.08527131782945735  0.08527131782945735  0.00000000000000000   0 
 0.07751937984496121  0.07751937984496121  0.00000000000000000   0 
 0.06976744186046513  0.06976744186046513  0.00000000000000000   0 
 0.06201550387596899  0.06201550387596899  0.00000000000000000   0 
 0.05426356589147285  0.05426356589147285  0.00000000000000000   0 
 0.04651162790697677  0.04651162790697677  0.00000000000000000   0 
 0.03875968992248063  0.03875968992248063  0.00000000000000000   0 
 0.03100775193798450  0.03100775193798450  0.00000000000000000   0 
 0.02325581395348836  0.02325581395348836  0.00000000000000000   0 
 0.01550387596899222  0.01550387596899222  0.00000000000000000   0 
 0.00775193798449608  0.00775193798449608  0.00000000000000000   0 
 0.00000000000000000  0.00000000000000000  0.00000000000000000   0 GAMMA
 0.00000000000000000  0.00000000000000000  0.02631578947368421   0 
 0.00000000000000000  0.00000000000000000  0.05263157894736842   0 
 0.00000000000000000  0.00000000000000000  0.07894736842105263   0 
 0.00000000000000000  0.00000000000000000  0.10526315789473684   0 
 0.00000000000000000  0.00000000000000000  0.13157894736842105   0 
 0.00000000000000000  0.00000000000000000  0.15789473684210525   0 
 0.00000000000000000  0.00000000000000000  0.18421052631578946   0 
 0.00000000000000000  0.00000000000000000  0.21052631578947367   0 
 0.00000000000000000  0.00000000000000000  0.23684210526315788   0 
 0.00000000000000000  0.00000000000000000  0.26315789473684209   0 
 0.00000000000000000  0.00000000000000000  0.28947368421052633   0 
 0.00000000000000000  0.00000000000000000  0.31578947368421051   0 
 0.00000000000000000  0.00000000000000000  0.34210526315789475   0 
 0.00000000000000000  0.00000000000000000  0.36842105263157893   0 
 0.00000000000000000  0.00000000000000000  0.39473684210526316   0 
 0.00000000000000000  0.00000000000000000  0.42105263157894735   0 
 0.00000000000000000  0.00000000000000000  0.44736842105263158   0 
 0.00000000000000000  0.00000000000000000  0.47368421052631576   0 
 0.00000000000000000  0.00000000000000000  0.50000000000000000   0 A
 0.01351351351351351  0.00000000000000000  0.50000000000000000   0 
 0.02702702702702703  0.00000000000000000  0.50000000000000000   0 
 0.04054054054054054  0.00000000000000000  0.50000000000000000   0 
 0.05405405405405405  0.00000000000000000  0.50000000000000000   0 
 0.06756756756756756  0.00000000000000000  0.50000000000000000   0 
 0.08108108108108107  0.00000000000000000  0.50000000000000000   0 
 0.09459459459459459  0.00000000000000000  0.50000000000000000   0 
 0.10810810810810810  0.00000000000000001  0.50000000000000000   0 
 0.12162162162162160  0.00000000000000001  0.50000000000000000   0 
 0.13513513513513511  0.00000000000000001  0.50000000000000000   0 
 0.14864864864864863  0.00000000000000001  0.50000000000000000   0 
 0.16216216216216214  0.00000000000000001  0.50000000000000000   0 
 0.17567567567567566  0.00000000000000001  0.50000000000000000   0 
 0.18918918918918917  0.00000000000000001  0.50000000000000000   0 
 0.20270270270270269  0.00000000000000001  0.50000000000000000   0 
 0.21621621621621620  0.00000000000000001  0.50000000000000000   0 
 0.22972972972972969  0.00000000000000001  0.50000000000000000   0 
 0.24324324324324320  0.00000000000000001  0.50000000000000000   0 
 0.25675675675675669  0.00000000000000001  0.50000000000000000   0 
 0.27027027027027023  0.00000000000000001  0.50000000000000000   0 
 0.28378378378378372  0.00000000000000001  0.50000000000000000   0 
 0.29729729729729726  0.00000000000000002  0.50000000000000000   0 
 0.31081081081081074  0.00000000000000002  0.50000000000000000   0 
 0.32432432432432429  0.00000000000000002  0.50000000000000000   0 
 0.33783783783783777  0.00000000000000002  0.50000000000000000   0 
 0.35135135135135132  0.00000000000000002  0.50000000000000000   0 
 0.36486486486486480  0.00000000000000002  0.50000000000000000   0 
 0.37837837837837834  0.00000000000000002  0.50000000000000000   0 
 0.39189189189189183  0.00000000000000002  0.50000000000000000   0 
 0.40540540540540537  0.00000000000000002  0.50000000000000000   0 
 0.41891891891891886  0.00000000000000002  0.50000000000000000   0 
 0.43243243243243240  0.00000000000000002  0.50000000000000000   0 
 0.44594594594594583  0.00000000000000002  0.50000000000000000   0 
 0.45945945945945937  0.00000000000000002  0.50000000000000000   0 
 0.47297297297297286  0.00000000000000002  0.50000000000000000   0 
 0.48648648648648640  0.00000000000000002  0.50000000000000000   0 
 0.49999999999999989  0.00000000000000003  0.50000000000000000   0 L
 0.49206349206349204  0.01587301587301590  0.50000000000000000   0 
 0.48412698412698407  0.03174603174603177  0.50000000000000000   0 
 0.47619047619047616  0.04761904761904764  0.50000000000000000   0 
 0.46825396825396820  0.06349206349206352  0.50000000000000000   0 
 0.46031746031746029  0.07936507936507939  0.50000000000000000   0 
 0.45238095238095233  0.09523809523809526  0.50000000000000000   0 
 0.44444444444444442  0.11111111111111112  0.50000000000000000   0 
 0.43650793650793646  0.12698412698412700  0.50000000000000000   0 
 0.42857142857142855  0.14285714285714288  0.50000000000000000   0 
 0.42063492063492058  0.15873015873015875  0.50000000000000000   0 
 0.41269841269841268  0.17460317460317462  0.50000000000000000   0 
 0.40476190476190471  0.19047619047619049  0.50000000000000000   0 
 0.39682539682539680  0.20634920634920637  0.50000000000000000   0 
 0.38888888888888884  0.22222222222222221  0.50000000000000000   0 
 0.38095238095238093  0.23809523809523811  0.50000000000000000   0 
 0.37301587301587302  0.25396825396825395  0.50000000000000000   0 
 0.36507936507936506  0.26984126984126983  0.50000000000000000   0 
 0.35714285714285710  0.28571428571428570  0.50000000000000000   0 
 0.34920634920634919  0.30158730158730157  0.50000000000000000   0 
 0.34126984126984128  0.31746031746031744  0.50000000000000000   0 
 0.33333333333333331  0.33333333333333331  0.50000000000000000   0 H
 0.32558139534883718  0.32558139534883718  0.50000000000000000   0 
 0.31782945736434109  0.31782945736434109  0.50000000000000000   0 
 0.31007751937984496  0.31007751937984496  0.50000000000000000   0 
 0.30232558139534882  0.30232558139534882  0.50000000000000000   0 
 0.29457364341085268  0.29457364341085268  0.50000000000000000   0 
 0.28682170542635654  0.28682170542635654  0.50000000000000000   0 
 0.27906976744186046  0.27906976744186046  0.50000000000000000   0 
 0.27131782945736432  0.27131782945736432  0.50000000000000000   0 
 0.26356589147286819  0.26356589147286819  0.50000000000000000   0 
 0.25581395348837210  0.25581395348837210  0.50000000000000000   0 
 0.24806201550387597  0.24806201550387597  0.50000000000000000   0 
 0.24031007751937983  0.24031007751937983  0.50000000000000000   0 
 0.23255813953488369  0.23255813953488369  0.50000000000000000   0 
 0.22480620155038761  0.22480620155038761  0.50000000000000000   0 
 0.21705426356589147  0.21705426356589147  0.50000000000000000   0 
 0.20930232558139533  0.20930232558139533  0.50000000000000000   0 
 0.20155038759689922  0.20155038759689922  0.50000000000000000   0 
 0.19379844961240308  0.19379844961240308  0.50000000000000000   0 
 0.18604651162790697  0.18604651162790697  0.50000000000000000   0 
 0.17829457364341084  0.17829457364341084  0.50000000000000000   0 
 0.17054263565891470  0.17054263565891470  0.50000000000000000   0 
 0.16279069767441859  0.16279069767441859  0.50000000000000000   0 
 0.15503875968992248  0.15503875968992248  0.50000000000000000   0 
 0.14728682170542634  0.14728682170542634  0.50000000000000000   0 
 0.13953488372093023  0.13953488372093023  0.50000000000000000   0 
 0.13178294573643409  0.13178294573643409  0.50000000000000000   0 
 0.12403100775193796  0.12403100775193796  0.50000000000000000   0 
 0.11627906976744187  0.11627906976744187  0.50000000000000000   0 
 0.10852713178294573  0.10852713178294573  0.50000000000000000   0 
 0.10077519379844960  0.10077519379844960  0.50000000000000000   0 
 0.09302325581395349  0.09302325581395349  0.50000000000000000   0 
 0.08527131782945735  0.08527131782945735  0.50000000000000000   0 
 0.07751937984496121  0.07751937984496121  0.50000000000000000   0 
 0.06976744186046513  0.06976744186046513  0.50000000000000000   0 
 0.06201550387596899  0.06201550387596899  0.50000000000000000   0 
 0.05426356589147285  0.05426356589147285  0.50000000000000000   0 
 0.04651162790697677  0.04651162790697677  0.50000000000000000   0 
 0.03875968992248063  0.03875968992248063  0.50000000000000000   0 
 0.03100775193798450  0.03100775193798450  0.50000000000000000   0 
 0.02325581395348836  0.02325581395348836  0.50000000000000000   0 
 0.01550387596899222  0.01550387596899222  0.50000000000000000   0 
 0.00775193798449608  0.00775193798449608  0.50000000000000000   0 
 0.00000000000000000  0.00000000000000000  0.50000000000000000   0 A
 0.49999999999999994  0.00000000000000003  0.50000000000000000   0 L
 0.49999999999999994  0.00000000000000003  0.47368421052631582   0 
 0.49999999999999994  0.00000000000000003  0.44736842105263158   0 
 0.49999999999999994  0.00000000000000003  0.42105263157894735   0 
 0.49999999999999994  0.00000000000000003  0.39473684210526316   0 
 0.49999999999999994  0.00000000000000003  0.36842105263157898   0 
 0.49999999999999994  0.00000000000000003  0.34210526315789475   0 
 0.49999999999999994  0.00000000000000003  0.31578947368421051   0 
 0.49999999999999994  0.00000000000000003  0.28947368421052633   0 
 0.49999999999999994  0.00000000000000003  0.26315789473684215   0 
 0.49999999999999994  0.00000000000000003  0.23684210526315791   0 
 0.49999999999999994  0.00000000000000003  0.21052631578947367   0 
 0.49999999999999994  0.00000000000000003  0.18421052631578949   0 
 0.49999999999999994  0.00000000000000003  0.15789473684210525   0 
 0.49999999999999994  0.00000000000000003  0.13157894736842107   0 
 0.49999999999999994  0.00000000000000003  0.10526315789473684   0 
 0.49999999999999994  0.00000000000000003  0.07894736842105265   0 
 0.49999999999999994  0.00000000000000003  0.05263157894736842   0 
 0.49999999999999994  0.00000000000000003  0.02631578947368424   0 
 0.49999999999999994  0.00000000000000003  0.00000000000000000   0 M
 0.33333333333333331  0.33333333333333331  0.50000000000000000   0 H
 0.33333333333333331  0.33333333333333331  0.47368421052631582   0 
 0.33333333333333331  0.33333333333333331  0.44736842105263158   0 
 0.33333333333333331  0.33333333333333331  0.42105263157894735   0 
 0.33333333333333331  0.33333333333333331  0.39473684210526316   0 
 0.33333333333333331  0.33333333333333331  0.36842105263157898   0 
 0.33333333333333331  0.33333333333333331  0.34210526315789475   0 
 0.33333333333333331  0.33333333333333331  0.31578947368421051   0 
 0.33333333333333331  0.33333333333333331  0.28947368421052633   0 
 0.33333333333333331  0.33333333333333331  0.26315789473684215   0 
 0.33333333333333331  0.33333333333333331  0.23684210526315791   0 
 0.33333333333333331  0.33333333333333331  0.21052631578947367   0 
 0.33333333333333331  0.33333333333333331  0.18421052631578949   0 
 0.33333333333333331  0.33333333333333331  0.15789473684210525   0 
 0.33333333333333331  0.33333333333333331  0.13157894736842107   0 
 0.33333333333333331  0.33333333333333331  0.10526315789473684   0 
 0.33333333333333331  0.33333333333333331  0.07894736842105265   0 
 0.33333333333333331  0.33333333333333331  0.05263157894736842   0 
 0.33333333333333331  0.33333333333333331  0.02631578947368424   0 
 0.33333333333333331  0.33333333333333331  0.00000000000000000   0 K
