Na1 Zn53 O54                            
    1.000000000000000     
     9.7481175735000001    0.0000000000000000    0.0000000000000000
    -4.8740587867000000    8.4421174577000002    0.0000000000000000
     0.0000000000000000    0.0000000000000000   15.6316036913000005
   Zn   O    Na
    53    54     1
Direct
     0.1111044765767826    0.2222225926082793    0.3323991011167215
     0.1098890613809157    0.2233390199024995    0.6656155530567940
     0.1116327121100739    0.5558545220595194    0.0000879967511509
     0.1106942211870165    0.5555743899588093    0.3341683885114824
     0.1105820766594750    0.5555619956964657    0.6656303380986816
     0.1012525896958760    0.8720177239358660    0.0040509230874993
     0.1108724795027782    0.8881578274658163    0.3348895848653075
     0.1100398931375141    0.8870338976651114    0.6647863993788962
     0.4608034050788914    0.2316539082890662    0.0039912044195349
     0.4451368575087811    0.2224157656527562    0.3348786739966369
     0.4462195194412301    0.2232117292386071    0.6648126356184736
     0.4448160405112111    0.5574788942819250    0.0012981499025778
     0.4447681235112982    0.5558960358267027    0.3343763535196958
     0.4446605085311245    0.5558694525532232    0.6653292324796447
     0.4441194263868707    0.8889605160895204    0.0001551418623166
     0.4444750704824281    0.8888548892882586    0.3338520611919595
     0.4445492449239993    0.8887251625921190    0.6666862804083347
     0.7771024989746489    0.2214176227284521    0.0000834693317347
     0.7777582233523407    0.2226044201661976    0.3341640692185405
     0.7777309321657148    0.2226819533089806    0.6656463135968655
     0.7776150115517085    0.5554099194564353    0.0004204031349298
     0.7780083980914196    0.5552000076765341    0.3337730921484865
     0.7778713254251129    0.5553664690667300    0.6669420447955549
     0.7753116863985716    0.8879608624438641    0.0013432456245968
     0.7774016748821440    0.8885271697641008    0.3343837058239165
     0.7773839272474387    0.8885590830391116    0.6653287458166467
     0.2220440655869657    0.1111079752434292    0.1700119041967134
     0.2219213508090293    0.1113956563388328    0.5003491461289398
     0.2220837354416945    0.1110153559647627    0.8209928880619447
     0.2215469064365881    0.4433895465076346    0.1684995765345156
     0.2220008888247842    0.4441715679163879    0.4995663487958214
     0.2238492758315736    0.4482672445154252    0.8319873727887711
     0.2228922688323051    0.7770150671632698    0.1681248629481590
     0.2225694770912650    0.7777386724359869    0.5001620555617968
     0.2220587876731684    0.7767994889852003    0.8322740147314586
     0.5562247089606058    0.1103683294263426    0.1680893943046284
     0.5555771093326076    0.1107508592777274    0.5001621709630589
     0.5563609171371168    0.1111119132658785    0.8322956078010585
     0.5557868338669750    0.4455249810991903    0.1683873953311395
     0.5559923891775822    0.4448284691828410    0.5001060466289006
     0.5557306290439560    0.4455012909157632    0.8324536157983572
     0.5551930186393046    0.7779521373203383    0.1676977573728574
     0.5554027631110330    0.7779055331091463    0.5001051756222770
     0.5557193300811112    0.7773792851411515    0.8323014191891269
     0.8897693175507606    0.1115763684539409    0.1685139398000420
     0.8891361287674674    0.1113039739726437    0.4995713659395094
     0.8847052185148462    0.1091037905630302    0.8319709140256578
     0.8892959841788425    0.4439431868488448    0.1668657145935337
     0.8887452401253602    0.4445467838510065    0.5001405440542421
     0.8889852024199266    0.4441632379281807    0.8330583267603736
     0.8876295104298813    0.7773004562470306    0.1684221427315867
     0.8884641856270418    0.7772790830866627    0.5000964084267334
     0.8876394491991026    0.7773614469344059    0.8324475981939382
     0.1118450564189192    0.2213165130181546    0.1383327190726293
     0.1111750748517384    0.2221313831490579    0.4605436461296131
     0.1099693678272806    0.2230345425060421    0.7946078887244499
     0.1115217319861900    0.5560173359571868    0.1271355280118020
     0.1108822553746020    0.5557288764573299    0.4610783572460517
     0.1098282085077639    0.5561117504757158    0.7924876919038719
     0.1107824809290692    0.8884918218384517    0.1282268259696351
     0.1110452787736176    0.8887661999866638    0.4618394109289783
     0.1098439359385956    0.8874643688271412    0.7928202410753820
     0.4446191851632370    0.2223362657633381    0.1282038359512580
     0.4445411965775891    0.2222622521307279    0.4618297596019883
     0.4456704065305347    0.2232996553947528    0.7928271879157939
     0.4448886305779214    0.5559394824445770    0.1276728834287450
     0.4447353909199475    0.5557417288908255    0.4612437893650231
     0.4456002320045580    0.5561477837807142    0.7922564139254968
     0.4443345903271501    0.8889190138717014    0.1270577937000686
     0.4444222887995957    0.8888996399366911    0.4606315418695399
     0.4443375511955964    0.8888387272348494    0.7939555675791720
     0.7772417788288168    0.2216945254054944    0.1271379314292140
     0.7775957275462922    0.2224323894840879    0.4610727346918148
     0.7770379093138633    0.2233262870794527    0.7924932744741521
     0.7776550616732689    0.5554713380631249    0.1272941268961759
     0.7777924529446090    0.5554802485743974    0.4605357344476295
     0.7776645732369611    0.5554279291285964    0.7941648340360569
     0.7772381856058713    0.8882348542621448    0.1276996593648382
     0.7775799310101110    0.8885775489750901    0.4612445327028390
     0.7769199234936658    0.8874049379593044    0.7922470148140149
     0.2233961637553943    0.1098947858780675    0.2968045636721663
     0.2218544599008165    0.1114187231954651    0.6285023032570792
     0.2381488949507963    0.0946915669800017    0.9535735222356417
     0.2231863932911892    0.4463241386388649    0.2959885757441545
     0.2221112450515456    0.4445623971123719    0.6269043385662787
     0.2337404346802832    0.4653437988730107    0.9559024904830773
     0.2221689008560639    0.7777764440653296    0.2945862892471879
     0.2228099823666584    0.7779406702814931    0.6270972891104964
     0.2223310351963353    0.7800790774829662    0.9598389283772032
     0.5555468433574842    0.1111465022364817    0.2945584750038575
     0.5553564494181427    0.1104889895560688    0.6271087243577251
     0.5528981002459359    0.1106949055416341    0.9598319777970181
     0.5556024327305256    0.4443924086315222    0.2948110479482673
     0.5562075205001078    0.4449619043761721    0.6270544604050989
     0.5552750893531346    0.4460032735829050    0.9603028825121595
     0.5555224897120967    0.7777787165402451    0.2943478456115824
     0.5552546701636684    0.7779943519866611    0.6269221894237678
     0.5546968965753986    0.7781759161367983    0.9598332198831172
     0.8869949424955844    0.1100961588820205    0.2959904755501087
     0.8886795263133745    0.1111132998542629    0.6269050520645757
     0.8672266269680150    0.0989740412334483    0.9558666688968317
     0.8889004939933888    0.4444080799722764    0.2939289796868899
     0.8885769631035850    0.4446748261681252    0.6269010998689822
     0.8886518359526674    0.4444045500755182    0.9607936149914623
     0.8888759027742921    0.7776397739750380    0.2948475860787980
     0.8882916828874149    0.7770294159142976    0.6270413513023921
     0.8869628977366414    0.7777039998573124    0.9603045350379196
     0.1082379970058492    0.2242048838260103    0.0006040675878004
 
  0.00000000E+00  0.00000000E+00  0.00000000E+00
  0.00000000E+00  0.00000000E+00  0.00000000E+00
  0.00000000E+00  0.00000000E+00  0.00000000E+00
  0.00000000E+00  0.00000000E+00  0.00000000E+00
  0.00000000E+00  0.00000000E+00  0.00000000E+00
  0.00000000E+00  0.00000000E+00  0.00000000E+00
  0.00000000E+00  0.00000000E+00  0.00000000E+00
  0.00000000E+00  0.00000000E+00  0.00000000E+00
  0.00000000E+00  0.00000000E+00  0.00000000E+00
  0.00000000E+00  0.00000000E+00  0.00000000E+00
  0.00000000E+00  0.00000000E+00  0.00000000E+00
  0.00000000E+00  0.00000000E+00  0.00000000E+00
  0.00000000E+00  0.00000000E+00  0.00000000E+00
  0.00000000E+00  0.00000000E+00  0.00000000E+00
  0.00000000E+00  0.00000000E+00  0.00000000E+00
  0.00000000E+00  0.00000000E+00  0.00000000E+00
  0.00000000E+00  0.00000000E+00  0.00000000E+00
  0.00000000E+00  0.00000000E+00  0.00000000E+00
  0.00000000E+00  0.00000000E+00  0.00000000E+00
  0.00000000E+00  0.00000000E+00  0.00000000E+00
  0.00000000E+00  0.00000000E+00  0.00000000E+00
  0.00000000E+00  0.00000000E+00  0.00000000E+00
  0.00000000E+00  0.00000000E+00  0.00000000E+00
  0.00000000E+00  0.00000000E+00  0.00000000E+00
  0.00000000E+00  0.00000000E+00  0.00000000E+00
  0.00000000E+00  0.00000000E+00  0.00000000E+00
  0.00000000E+00  0.00000000E+00  0.00000000E+00
  0.00000000E+00  0.00000000E+00  0.00000000E+00
  0.00000000E+00  0.00000000E+00  0.00000000E+00
  0.00000000E+00  0.00000000E+00  0.00000000E+00
  0.00000000E+00  0.00000000E+00  0.00000000E+00
  0.00000000E+00  0.00000000E+00  0.00000000E+00
  0.00000000E+00  0.00000000E+00  0.00000000E+00
  0.00000000E+00  0.00000000E+00  0.00000000E+00
  0.00000000E+00  0.00000000E+00  0.00000000E+00
  0.00000000E+00  0.00000000E+00  0.00000000E+00
  0.00000000E+00  0.00000000E+00  0.00000000E+00
  0.00000000E+00  0.00000000E+00  0.00000000E+00
  0.00000000E+00  0.00000000E+00  0.00000000E+00
  0.00000000E+00  0.00000000E+00  0.00000000E+00
  0.00000000E+00  0.00000000E+00  0.00000000E+00
  0.00000000E+00  0.00000000E+00  0.00000000E+00
  0.00000000E+00  0.00000000E+00  0.00000000E+00
  0.00000000E+00  0.00000000E+00  0.00000000E+00
  0.00000000E+00  0.00000000E+00  0.00000000E+00
  0.00000000E+00  0.00000000E+00  0.00000000E+00
  0.00000000E+00  0.00000000E+00  0.00000000E+00
  0.00000000E+00  0.00000000E+00  0.00000000E+00
  0.00000000E+00  0.00000000E+00  0.00000000E+00
  0.00000000E+00  0.00000000E+00  0.00000000E+00
  0.00000000E+00  0.00000000E+00  0.00000000E+00
  0.00000000E+00  0.00000000E+00  0.00000000E+00
  0.00000000E+00  0.00000000E+00  0.00000000E+00
  0.00000000E+00  0.00000000E+00  0.00000000E+00
  0.00000000E+00  0.00000000E+00  0.00000000E+00
  0.00000000E+00  0.00000000E+00  0.00000000E+00
  0.00000000E+00  0.00000000E+00  0.00000000E+00
  0.00000000E+00  0.00000000E+00  0.00000000E+00
  0.00000000E+00  0.00000000E+00  0.00000000E+00
  0.00000000E+00  0.00000000E+00  0.00000000E+00
  0.00000000E+00  0.00000000E+00  0.00000000E+00
  0.00000000E+00  0.00000000E+00  0.00000000E+00
  0.00000000E+00  0.00000000E+00  0.00000000E+00
  0.00000000E+00  0.00000000E+00  0.00000000E+00
  0.00000000E+00  0.00000000E+00  0.00000000E+00
  0.00000000E+00  0.00000000E+00  0.00000000E+00
  0.00000000E+00  0.00000000E+00  0.00000000E+00
  0.00000000E+00  0.00000000E+00  0.00000000E+00
  0.00000000E+00  0.00000000E+00  0.00000000E+00
  0.00000000E+00  0.00000000E+00  0.00000000E+00
  0.00000000E+00  0.00000000E+00  0.00000000E+00
  0.00000000E+00  0.00000000E+00  0.00000000E+00
  0.00000000E+00  0.00000000E+00  0.00000000E+00
  0.00000000E+00  0.00000000E+00  0.00000000E+00
  0.00000000E+00  0.00000000E+00  0.00000000E+00
  0.00000000E+00  0.00000000E+00  0.00000000E+00
  0.00000000E+00  0.00000000E+00  0.00000000E+00
  0.00000000E+00  0.00000000E+00  0.00000000E+00
  0.00000000E+00  0.00000000E+00  0.00000000E+00
  0.00000000E+00  0.00000000E+00  0.00000000E+00
  0.00000000E+00  0.00000000E+00  0.00000000E+00
  0.00000000E+00  0.00000000E+00  0.00000000E+00
  0.00000000E+00  0.00000000E+00  0.00000000E+00
  0.00000000E+00  0.00000000E+00  0.00000000E+00
  0.00000000E+00  0.00000000E+00  0.00000000E+00
  0.00000000E+00  0.00000000E+00  0.00000000E+00
  0.00000000E+00  0.00000000E+00  0.00000000E+00
  0.00000000E+00  0.00000000E+00  0.00000000E+00
  0.00000000E+00  0.00000000E+00  0.00000000E+00
  0.00000000E+00  0.00000000E+00  0.00000000E+00
  0.00000000E+00  0.00000000E+00  0.00000000E+00
  0.00000000E+00  0.00000000E+00  0.00000000E+00
  0.00000000E+00  0.00000000E+00  0.00000000E+00
  0.00000000E+00  0.00000000E+00  0.00000000E+00
  0.00000000E+00  0.00000000E+00  0.00000000E+00
  0.00000000E+00  0.00000000E+00  0.00000000E+00
  0.00000000E+00  0.00000000E+00  0.00000000E+00
  0.00000000E+00  0.00000000E+00  0.00000000E+00
  0.00000000E+00  0.00000000E+00  0.00000000E+00
  0.00000000E+00  0.00000000E+00  0.00000000E+00
  0.00000000E+00  0.00000000E+00  0.00000000E+00
  0.00000000E+00  0.00000000E+00  0.00000000E+00
  0.00000000E+00  0.00000000E+00  0.00000000E+00
  0.00000000E+00  0.00000000E+00  0.00000000E+00
  0.00000000E+00  0.00000000E+00  0.00000000E+00
  0.00000000E+00  0.00000000E+00  0.00000000E+00
  0.00000000E+00  0.00000000E+00  0.00000000E+00
  0.00000000E+00  0.00000000E+00  0.00000000E+00
