Na1 Zn53 O54                            
    1.000000000000000     
     9.7481175735000001    0.0000000000000000    0.0000000000000000
    -4.8740587867000000    8.4421174577000002    0.0000000000000000
     0.0000000000000000    0.0000000000000000   15.6316036913000005
   Zn   O    Na
    53    54     1
Direct
     0.1111014094841649    0.2222553702548694    0.3323697999063233
     0.1099345960420918    0.2233306525636760    0.6655663107760306
     0.1116226881057857    0.5559001527688537    0.0000876501777823
     0.1105847989572243    0.5556081935253065    0.3342356011879212
     0.1106107763577830    0.5555424717426879    0.6656369014432676
     0.1012261311582563    0.8720313200521949    0.0040118467359776
     0.1108280446866013    0.8880156381920060    0.3349241684508485
     0.1101158435212447    0.8870577644720109    0.6647737567423653
     0.4607215744506628    0.2316185399296481    0.0039627862444712
     0.4453139762126911    0.2224707276497936    0.3349057163857714
     0.4462273913281876    0.2231559822985946    0.6647852234138647
     0.4448331062000027    0.5575795937077804    0.0012785817222522
     0.4449262461869428    0.5560579253602800    0.3344001478652338
     0.4446453781250275    0.5558600714536149    0.6652861714423295
     0.4440471745255059    0.8889779291572747    0.0001222284427681
     0.4445133558280420    0.8888359161696571    0.3338752098810339
     0.4445886699655942    0.8887232496468561    0.6666174293050154
     0.7770706232770150    0.2213996398287319    0.0000872210194446
     0.7777152087428367    0.2227132184803109    0.3342206992013226
     0.7777600770530599    0.2226653102798997    0.6656609081752348
     0.7776530984660051    0.5553935239027121    0.0003920980205140
     0.7779946642453440    0.5552094263903420    0.3338380859141025
     0.7778801975262448    0.5553523287375326    0.6668515428392716
     0.7752368192197112    0.8879546278649864    0.0013244417931071
     0.7772536042583180    0.8883794999917334    0.3344043928006853
     0.7773898497229190    0.8885700414681970    0.6652893608409201
     0.2220445117243167    0.1110569165348204    0.1700556288453088
     0.2219252702847077    0.1113973073722609    0.5003668420795023
     0.2220867279976903    0.1110478407507716    0.8210481122420978
     0.2215408549203621    0.4434883527168174    0.1685927196315301
     0.2220245564072049    0.4441839438822503    0.4994652160010376
     0.2237704421307866    0.4482179543974293    0.8319906706001049
     0.2229369179642092    0.7770235279996145    0.1680995468247718
     0.2226625549057735    0.7777725017317276    0.5001794959097013
     0.2221562484520629    0.7769407987367198    0.8322838221128438
     0.5562730356248351    0.1103493257279456    0.1680724492288725
     0.5555614404788489    0.1106683180183994    0.5001948964014844
     0.5562386458479621    0.1110250712915937    0.8322745678626258
     0.5557985661617318    0.4456260397140288    0.1683595957828068
     0.5560263829923220    0.4448717558608205    0.5001451398119926
     0.5557667034054945    0.4454431280443583    0.8324109561558229
     0.5553022034869347    0.7778523540446214    0.1676969025005422
     0.5553853023406443    0.7779454391246533    0.5001080969868157
     0.5557277319727116    0.7773205051895442    0.8323196168900018
     0.8897036454775377    0.1115948093624739    0.1685978563412112
     0.8891283375936729    0.1112975375292248    0.4994659597660842
     0.8847553596862068    0.1091809810955496    0.8319999471305202
     0.8893706326247087    0.4438961053511625    0.1668781429627731
     0.8887364464052803    0.4445826268035672    0.5000664669446216
     0.8889997519461377    0.4441872661122623    0.8330604974067982
     0.8875255391256383    0.7772410128186783    0.1684217180017601
     0.8884247349253381    0.7772515714495691    0.5001186350452208
     0.8877279551230208    0.7772991245031668    0.8324341622288773
     0.1118262433914651    0.2213833267731457    0.1385516659539184
     0.1112061227242120    0.2221237169638058    0.4604676415566714
     0.1098529417575682    0.2231553304779467    0.7945912754319195
     0.1115862663575901    0.5560224298762587    0.1271464123581975
     0.1108543044846105    0.5557713363095140    0.4611404088332761
     0.1098552076675885    0.5561516157030909    0.7924636729399033
     0.1108368497275917    0.8885398319230050    0.1282698475524864
     0.1110166840025974    0.8887202863138681    0.4618666994147959
     0.1098811960966176    0.8875272966445302    0.7927835814915035
     0.4445758012762627    0.2222936222762058    0.1282169339279154
     0.4446052524511476    0.2222928359874712    0.4618562250111377
     0.4455531633851036    0.2232393714041811    0.7928063425152977
     0.4447826824385842    0.5558474831403973    0.1276738194473430
     0.4448358971141501    0.5557948469089977    0.4612700277815619
     0.4455289002135716    0.5560879907339753    0.7922376142024588
     0.4443518709658645    0.8888683113428927    0.1269997190673254
     0.4444490311253796    0.8888828498175358    0.4606233284283641
     0.4444164531224867    0.8887583194344619    0.7938943423546425
     0.7772861351752635    0.2216736299044980    0.1271309444371509
     0.7775276401732759    0.2224444386440810    0.4611252353338977
     0.7770669464374188    0.2233064991937967    0.7924853633535839
     0.7776783977192077    0.5554295793349037    0.1272627549649947
     0.7777527054872556    0.5554952436196130    0.4605594964268732
     0.7777066301665448    0.5554167999726209    0.7941103417652429
     0.7773475218884996    0.8883192689473980    0.1277037574013775
     0.7775009657554864    0.8884677133826054    0.4612838254883940
     0.7770013757007270    0.8874669672762734    0.7922331678304871
     0.2234782408608489    0.1098232333206098    0.2968366501086006
     0.2218552761161175    0.1114242053528592    0.6284909699700527
     0.2381445755859899    0.0945419239873323    0.9535838029644997
     0.2232357127705801    0.4464203010517133    0.2960543401207280
     0.2220951346610151    0.4445578053731140    0.6268557968473932
     0.2337140549013839    0.4652508542511235    0.9558601660024114
     0.2222026927469901    0.7777996741439425    0.2945684882463582
     0.2228374099399982    0.7778292805534642    0.6270964124362507
     0.2222370505384602    0.7800253050091677    0.9598318438949419
     0.5555341894407282    0.1111204862138526    0.2945512853237907
     0.5554800937296345    0.1104560505131106    0.6270952967080763
     0.5529264564926050    0.1107257753894054    0.9598290532142035
     0.5556468381021971    0.4444135096858466    0.2947954743239271
     0.5562866544758006    0.4450630049430277    0.6270437304402865
     0.5553255205366244    0.4460581445513668    0.9602917594906003
     0.5555142572803152    0.7777932191194068    0.2943499970627666
     0.5552732073831773    0.7779878616089355    0.6268927423107706
     0.5546382182891647    0.7781831001711261    0.9598158838066482
     0.8869166046834582    0.1100719185825819    0.2960638007922443
     0.8887014020582703    0.1111361405328781    0.6268673672044641
     0.8673063385013718    0.0990021490860864    0.9558246664764659
     0.8888372077032286    0.4444446727645484    0.2939290150539794
     0.8886041641030606    0.4446760096219250    0.6268564075689609
     0.8885623324585146    0.4444006001090443    0.9607655966973156
     0.8888628721032880    0.7775951636586166    0.2948407355705464
     0.8882199822212549    0.7769513114030127    0.6270300642966894
     0.8868887888145289    0.7776637698669017    0.9602947668573463
     0.1077950881419150    0.2244548886743418    0.0008537935153954
 
  0.00000000E+00  0.00000000E+00  0.00000000E+00
  0.00000000E+00  0.00000000E+00  0.00000000E+00
  0.00000000E+00  0.00000000E+00  0.00000000E+00
  0.00000000E+00  0.00000000E+00  0.00000000E+00
  0.00000000E+00  0.00000000E+00  0.00000000E+00
  0.00000000E+00  0.00000000E+00  0.00000000E+00
  0.00000000E+00  0.00000000E+00  0.00000000E+00
  0.00000000E+00  0.00000000E+00  0.00000000E+00
  0.00000000E+00  0.00000000E+00  0.00000000E+00
  0.00000000E+00  0.00000000E+00  0.00000000E+00
  0.00000000E+00  0.00000000E+00  0.00000000E+00
  0.00000000E+00  0.00000000E+00  0.00000000E+00
  0.00000000E+00  0.00000000E+00  0.00000000E+00
  0.00000000E+00  0.00000000E+00  0.00000000E+00
  0.00000000E+00  0.00000000E+00  0.00000000E+00
  0.00000000E+00  0.00000000E+00  0.00000000E+00
  0.00000000E+00  0.00000000E+00  0.00000000E+00
  0.00000000E+00  0.00000000E+00  0.00000000E+00
  0.00000000E+00  0.00000000E+00  0.00000000E+00
  0.00000000E+00  0.00000000E+00  0.00000000E+00
  0.00000000E+00  0.00000000E+00  0.00000000E+00
  0.00000000E+00  0.00000000E+00  0.00000000E+00
  0.00000000E+00  0.00000000E+00  0.00000000E+00
  0.00000000E+00  0.00000000E+00  0.00000000E+00
  0.00000000E+00  0.00000000E+00  0.00000000E+00
  0.00000000E+00  0.00000000E+00  0.00000000E+00
  0.00000000E+00  0.00000000E+00  0.00000000E+00
  0.00000000E+00  0.00000000E+00  0.00000000E+00
  0.00000000E+00  0.00000000E+00  0.00000000E+00
  0.00000000E+00  0.00000000E+00  0.00000000E+00
  0.00000000E+00  0.00000000E+00  0.00000000E+00
  0.00000000E+00  0.00000000E+00  0.00000000E+00
  0.00000000E+00  0.00000000E+00  0.00000000E+00
  0.00000000E+00  0.00000000E+00  0.00000000E+00
  0.00000000E+00  0.00000000E+00  0.00000000E+00
  0.00000000E+00  0.00000000E+00  0.00000000E+00
  0.00000000E+00  0.00000000E+00  0.00000000E+00
  0.00000000E+00  0.00000000E+00  0.00000000E+00
  0.00000000E+00  0.00000000E+00  0.00000000E+00
  0.00000000E+00  0.00000000E+00  0.00000000E+00
  0.00000000E+00  0.00000000E+00  0.00000000E+00
  0.00000000E+00  0.00000000E+00  0.00000000E+00
  0.00000000E+00  0.00000000E+00  0.00000000E+00
  0.00000000E+00  0.00000000E+00  0.00000000E+00
  0.00000000E+00  0.00000000E+00  0.00000000E+00
  0.00000000E+00  0.00000000E+00  0.00000000E+00
  0.00000000E+00  0.00000000E+00  0.00000000E+00
  0.00000000E+00  0.00000000E+00  0.00000000E+00
  0.00000000E+00  0.00000000E+00  0.00000000E+00
  0.00000000E+00  0.00000000E+00  0.00000000E+00
  0.00000000E+00  0.00000000E+00  0.00000000E+00
  0.00000000E+00  0.00000000E+00  0.00000000E+00
  0.00000000E+00  0.00000000E+00  0.00000000E+00
  0.00000000E+00  0.00000000E+00  0.00000000E+00
  0.00000000E+00  0.00000000E+00  0.00000000E+00
  0.00000000E+00  0.00000000E+00  0.00000000E+00
  0.00000000E+00  0.00000000E+00  0.00000000E+00
  0.00000000E+00  0.00000000E+00  0.00000000E+00
  0.00000000E+00  0.00000000E+00  0.00000000E+00
  0.00000000E+00  0.00000000E+00  0.00000000E+00
  0.00000000E+00  0.00000000E+00  0.00000000E+00
  0.00000000E+00  0.00000000E+00  0.00000000E+00
  0.00000000E+00  0.00000000E+00  0.00000000E+00
  0.00000000E+00  0.00000000E+00  0.00000000E+00
  0.00000000E+00  0.00000000E+00  0.00000000E+00
  0.00000000E+00  0.00000000E+00  0.00000000E+00
  0.00000000E+00  0.00000000E+00  0.00000000E+00
  0.00000000E+00  0.00000000E+00  0.00000000E+00
  0.00000000E+00  0.00000000E+00  0.00000000E+00
  0.00000000E+00  0.00000000E+00  0.00000000E+00
  0.00000000E+00  0.00000000E+00  0.00000000E+00
  0.00000000E+00  0.00000000E+00  0.00000000E+00
  0.00000000E+00  0.00000000E+00  0.00000000E+00
  0.00000000E+00  0.00000000E+00  0.00000000E+00
  0.00000000E+00  0.00000000E+00  0.00000000E+00
  0.00000000E+00  0.00000000E+00  0.00000000E+00
  0.00000000E+00  0.00000000E+00  0.00000000E+00
  0.00000000E+00  0.00000000E+00  0.00000000E+00
  0.00000000E+00  0.00000000E+00  0.00000000E+00
  0.00000000E+00  0.00000000E+00  0.00000000E+00
  0.00000000E+00  0.00000000E+00  0.00000000E+00
  0.00000000E+00  0.00000000E+00  0.00000000E+00
  0.00000000E+00  0.00000000E+00  0.00000000E+00
  0.00000000E+00  0.00000000E+00  0.00000000E+00
  0.00000000E+00  0.00000000E+00  0.00000000E+00
  0.00000000E+00  0.00000000E+00  0.00000000E+00
  0.00000000E+00  0.00000000E+00  0.00000000E+00
  0.00000000E+00  0.00000000E+00  0.00000000E+00
  0.00000000E+00  0.00000000E+00  0.00000000E+00
  0.00000000E+00  0.00000000E+00  0.00000000E+00
  0.00000000E+00  0.00000000E+00  0.00000000E+00
  0.00000000E+00  0.00000000E+00  0.00000000E+00
  0.00000000E+00  0.00000000E+00  0.00000000E+00
  0.00000000E+00  0.00000000E+00  0.00000000E+00
  0.00000000E+00  0.00000000E+00  0.00000000E+00
  0.00000000E+00  0.00000000E+00  0.00000000E+00
  0.00000000E+00  0.00000000E+00  0.00000000E+00
  0.00000000E+00  0.00000000E+00  0.00000000E+00
  0.00000000E+00  0.00000000E+00  0.00000000E+00
  0.00000000E+00  0.00000000E+00  0.00000000E+00
  0.00000000E+00  0.00000000E+00  0.00000000E+00
  0.00000000E+00  0.00000000E+00  0.00000000E+00
  0.00000000E+00  0.00000000E+00  0.00000000E+00
  0.00000000E+00  0.00000000E+00  0.00000000E+00
  0.00000000E+00  0.00000000E+00  0.00000000E+00
  0.00000000E+00  0.00000000E+00  0.00000000E+00
  0.00000000E+00  0.00000000E+00  0.00000000E+00
  0.00000000E+00  0.00000000E+00  0.00000000E+00
