Num irrep kpoints: 42
0
Gamma
10 10 6
0.0 0.0 0.5
