Nd2 O4                                  
   1.00000000000000     
     3.2972228008915154   -1.9670107000707013   -0.0104983050304185
     3.2972228008915154    1.9670107000707013   -0.0104983050304185
    -0.8958762143900943    0.0000000000000000    6.3464181431001192
   Nd   O 
     2     4
Direct
     0.8014069325430712    0.8014069325430712    0.7698458396177449
     0.1985930674569289    0.1985930674569289    0.2301541603822551
     0.8484642994516358    0.8484642994516358    0.1403250099112122
     0.1515357005483642    0.1515357005483642    0.8596749900887878
     0.5765543883954233    0.5765543883954233    0.4291636412698597
     0.4234456116045764    0.4234456116045764    0.5708363587301404
 
  0.00000000E+00  0.00000000E+00  0.00000000E+00
  0.00000000E+00  0.00000000E+00  0.00000000E+00
  0.00000000E+00  0.00000000E+00  0.00000000E+00
  0.00000000E+00  0.00000000E+00  0.00000000E+00
  0.00000000E+00  0.00000000E+00  0.00000000E+00
  0.00000000E+00  0.00000000E+00  0.00000000E+00
