Nd2 O4
1.0
   3.3553548168   -2.0164147160    0.0000000000
   3.3553548168    2.0164147160    0.0000000000
  -0.8911347467    0.0000000000    6.4477102876
Nd O
2 4
direct
   0.8015111500    0.8015111500    0.7687884400 Nd
   0.1984888500    0.1984888500    0.2312115600 Nd
   0.8476552200    0.8476552200    0.1416675300 O
   0.1523447800    0.1523447800    0.8583324700 O
   0.5780165700    0.5780165700    0.4279277000 O
   0.4219834300    0.4219834300    0.5720723000 O
