Nd4                                     
   1.00000000000000     
     3.7021343731591640    0.0000000000001550   -0.0000000000000000
    -1.8510671866293411    3.2061424154288218    0.0000000000000000
    -0.0000000000000000    0.0000000000000000   11.4290304595284127
   Nd
     4
Direct
     0.0000000000000000    0.0000000000000000    0.0000000000000000
     0.0000000000000000    0.0000000000000000    0.5000000000000000
     0.3333333332999970    0.6666666667000030    0.2500000000000000
     0.6666666667000030    0.3333333332999970    0.7500000000000000
 
  0.00000000E+00  0.00000000E+00  0.00000000E+00
  0.00000000E+00  0.00000000E+00  0.00000000E+00
  0.00000000E+00  0.00000000E+00  0.00000000E+00
  0.00000000E+00  0.00000000E+00  0.00000000E+00
