Nd4
1.0
   3.7100737557    0.0000000000    0.0000000000
  -1.8550368779    3.2130181224    0.0000000000
   0.0000000000    0.0000000000   11.8992154700
Nd
4
direct
   0.0000000000    0.0000000000    0.0000000000 Nd
   0.0000000000    0.0000000000    0.5000000000 Nd
   0.3333333333    0.6666666667    0.2500000000 Nd
   0.6666666667    0.3333333333    0.7500000000 Nd
