Zn54 O55                                
    1.000000000000000     
     9.7481175735000001    0.0000000000000000    0.0000000000000000
    -4.8740587867000000    8.4421174577000002    0.0000000000000000
     0.0000000000000000    0.0000000000000000   15.6316036913000005
   Zn   O 
    54    55
Direct
     0.1111727053174931    0.2219593537428963    0.9997140019206796
     0.1165973315465152    0.2213960688266638    0.3329502916258349
     0.1112836946378266    0.2222050903891457    0.6664591859650386
     0.1112507349224714    0.5557476115541320    0.9999263130511835
     0.1128549268502397    0.5566754508699034    0.3333409897279225
     0.1117423812997060    0.5559215666526072    0.6669474949683902
     0.1113140737409140    0.8896518395848787    0.9997029365216079
     0.1171622217327197    0.8960040705432135    0.3328726524218695
     0.1114940201480934    0.8892648440024544    0.6664456574113515
     0.4442315456338335    0.2222551383684603    0.0000795577390420
     0.4578753326129288    0.2291550667536555    0.3369528078429767
     0.4444903058447380    0.2223275116836021    0.6669621838724211
     0.4438051365350475    0.5552725667932847    0.9999485488723252
     0.4446012105296973    0.5553333707543047    0.3331069863776648
     0.4437529456770974    0.5553930792632045    0.6667778387240091
     0.4438650264006938    0.8886901625878707    0.9999410824829553
     0.4447289227922369    0.8895052471015532    0.3331348798827420
     0.4438591955050768    0.8883935610033404    0.6668014444843209
     0.7776318627228846    0.2221427816548882    0.9996028943206881
     0.7759913761066599    0.2277836619176625    0.3359334266704295
     0.7782564214867591    0.2221554456048693    0.6671893092913521
     0.7777361548016302    0.5557828845051347    0.9996145559705667
     0.7762201140366543    0.5493069756213202    0.3358847492458281
     0.7784034416244765    0.5562170513879465    0.6672360776893740
     0.7744832753989499    0.8873056248198452    0.9950735356838720
     0.7746636216692835    0.8873854637530343    0.3347865846841316
     0.7781500223467859    0.8890609731811097    0.6666262042623643
     0.2242761921849237    0.1127481949074607    0.1693794516943754
     0.2243650289965089    0.1122936085260449    0.4998703707994991
     0.2222635498366756    0.1112359878522540    0.8330445346382476
     0.2199183484135716    0.4433304355469048    0.1665677422828438
     0.2222224071782293    0.4443163471729008    0.4997734121837496
     0.2220113370630301    0.4443212118370425    0.8334346417482124
     0.2201926023004219    0.7775129818161588    0.1665647978008025
     0.2222416765547166    0.7780036945684614    0.4997752309116876
     0.2220391060623257    0.7778337270960449    0.8334703939903250
     0.5547947040587005    0.1109582437809138    0.1666335708744882
     0.5562224645113858    0.1101138083667976    0.5018577082248612
     0.5553049781285324    0.1110741498971493    0.8333462271810532
     0.5550534050906037    0.4447897341485145    0.1666074650049438
     0.5564040764945020    0.4463311166840498    0.5018448207247133
     0.5554304267718067    0.4443905422963539    0.8333496164399818
     0.5505221095363666    0.7754497373464062    0.1654852305653378
     0.5551970380091547    0.7776170358865286    0.5003869462058717
     0.5542130509690040    0.7770967986594428    0.8318743940603781
     0.8832243797083237    0.1055973375492272    0.1627309579748015
     0.8899369407928432    0.1115187807257456    0.4998190979091106
     0.8893908511044941    0.1117548207347454    0.8326884458885857
     0.8885752914369718    0.4446294331800118    0.1662178853582290
     0.8903076021978791    0.4452228159302507    0.5015964220135061
     0.8891099482151645    0.4446192077443243    0.8334596501620339
     0.8838289296457873    0.7785959775667450    0.1628632783423853
     0.8902205046252192    0.7786015520653535    0.4998182725426403
     0.8894722386261904    0.7778203662399505    0.8327365510350901
     0.9830800540584264    0.9924078592217285    0.2365247537576991
     0.1110704929491035    0.2231097970424756    0.1263476848229175
     0.1119176952302325    0.2219791968373315    0.4602948886466649
     0.1113281804071917    0.2224164651219169    0.7933373176423828
     0.1102972510273048    0.5555614327973473    0.1271015316108688
     0.1112348677813344    0.5556415466802633    0.4604309798542374
     0.1112241237318941    0.5557172053270492    0.7937762891409932
     0.1113924956845977    0.8890806887480664    0.1263397938727024
     0.1121296801304297    0.8901773550916019    0.4602814353944424
     0.1114330958645979    0.8890983331276558    0.7933561454426297
     0.4448581248180972    0.2228543927906017    0.1270850306352997
     0.4486986054800255    0.2244533710399494    0.4634539598637062
     0.4444576939493885    0.2222865009629160    0.7938448708887833
     0.4416125118804146    0.5531128325620500    0.1270582893122381
     0.4448201581291542    0.5556683551526689    0.4603971710328594
     0.4437668935431063    0.5546918821978863    0.7934165837834755
     0.4418150003801671    0.8891898899416830    0.1270391878405164
     0.4448629999338962    0.8892221449016304    0.4603999285759315
     0.4437877461346389    0.8891380580657113    0.7934454655093788
     0.7772967490577329    0.2222353875658385    0.1269740925062450
     0.7783279624683956    0.2232043853468184    0.4619836495942238
     0.7776995193875749    0.2224391187669994    0.7939635166296029
     0.7775099986737004    0.5559764008787482    0.1270109909252142
     0.7784016929516753    0.5553245113058551    0.4619411846238890
     0.7778169772208301    0.5554748358093846    0.7939775668155349
     0.7644524718486352    0.8824235589423566    0.1195570811132782
     0.7776412168142173    0.8887857240358557    0.4609753314026790
     0.7777229050636691    0.8889204391869328    0.7936494619915493
     0.2440525555390707    0.1223579981028919    0.2983640469911819
     0.2226225969418039    0.1113998024382639    0.6270740837942554
     0.2225187005371367    0.1114935155904107    0.9598692553366135
     0.2224710242841041    0.4441482968177084    0.2938524864223240
     0.2219771456701451    0.4443839650316903    0.6267822191361176
     0.2215589015206874    0.4441129327651936    0.9602383338841207
     0.2225733584084111    0.7787029601912678    0.2938960027875979
     0.2221050219542420    0.7776681664667464    0.6268042455453866
     0.2215873163992086    0.7777247197259669    0.9602410492106159
     0.5590467400385748    0.1115105896452704    0.2938111993010608
     0.5558382376930027    0.1108731117801227    0.6282980635774607
     0.5553834154677659    0.1110725121598648    0.9604253858142684
     0.5591310942806444    0.4478937004171115    0.2937929269622330
     0.5559963719009602    0.4451048503311199    0.6282752945736476
     0.5554454069199650    0.4445969739494444    0.9604158931643667
     0.5553856315219576    0.7777471879002320    0.2932021892007555
     0.5555777737150933    0.7777723692136504    0.6272941925551478
     0.5512579653946901    0.7756857513603421    0.9581428674206975
     0.8854188748011680    0.1166631282486819    0.2982768284230630
     0.8890488864334074    0.1111545781532755    0.6269682647121329
     0.8891795538035652    0.1119093490899132    0.9594645608183399
     0.8906704053784864    0.4456655903766631    0.2935991125226209
     0.8892319084724249    0.4446114154060155    0.6280222145920078
     0.8888236243920389    0.4444922091429291    0.9605372732317434
     0.8860972329175567    0.7697012589464762    0.2980394883081914
     0.8891816331439770    0.7779747760620523    0.6269972323207753
     0.8892611570347455    0.7775536353905892    0.9594360774946722
 
  0.00000000E+00  0.00000000E+00  0.00000000E+00
  0.00000000E+00  0.00000000E+00  0.00000000E+00
  0.00000000E+00  0.00000000E+00  0.00000000E+00
  0.00000000E+00  0.00000000E+00  0.00000000E+00
  0.00000000E+00  0.00000000E+00  0.00000000E+00
  0.00000000E+00  0.00000000E+00  0.00000000E+00
  0.00000000E+00  0.00000000E+00  0.00000000E+00
  0.00000000E+00  0.00000000E+00  0.00000000E+00
  0.00000000E+00  0.00000000E+00  0.00000000E+00
  0.00000000E+00  0.00000000E+00  0.00000000E+00
  0.00000000E+00  0.00000000E+00  0.00000000E+00
  0.00000000E+00  0.00000000E+00  0.00000000E+00
  0.00000000E+00  0.00000000E+00  0.00000000E+00
  0.00000000E+00  0.00000000E+00  0.00000000E+00
  0.00000000E+00  0.00000000E+00  0.00000000E+00
  0.00000000E+00  0.00000000E+00  0.00000000E+00
  0.00000000E+00  0.00000000E+00  0.00000000E+00
  0.00000000E+00  0.00000000E+00  0.00000000E+00
  0.00000000E+00  0.00000000E+00  0.00000000E+00
  0.00000000E+00  0.00000000E+00  0.00000000E+00
  0.00000000E+00  0.00000000E+00  0.00000000E+00
  0.00000000E+00  0.00000000E+00  0.00000000E+00
  0.00000000E+00  0.00000000E+00  0.00000000E+00
  0.00000000E+00  0.00000000E+00  0.00000000E+00
  0.00000000E+00  0.00000000E+00  0.00000000E+00
  0.00000000E+00  0.00000000E+00  0.00000000E+00
  0.00000000E+00  0.00000000E+00  0.00000000E+00
  0.00000000E+00  0.00000000E+00  0.00000000E+00
  0.00000000E+00  0.00000000E+00  0.00000000E+00
  0.00000000E+00  0.00000000E+00  0.00000000E+00
  0.00000000E+00  0.00000000E+00  0.00000000E+00
  0.00000000E+00  0.00000000E+00  0.00000000E+00
  0.00000000E+00  0.00000000E+00  0.00000000E+00
  0.00000000E+00  0.00000000E+00  0.00000000E+00
  0.00000000E+00  0.00000000E+00  0.00000000E+00
  0.00000000E+00  0.00000000E+00  0.00000000E+00
  0.00000000E+00  0.00000000E+00  0.00000000E+00
  0.00000000E+00  0.00000000E+00  0.00000000E+00
  0.00000000E+00  0.00000000E+00  0.00000000E+00
  0.00000000E+00  0.00000000E+00  0.00000000E+00
  0.00000000E+00  0.00000000E+00  0.00000000E+00
  0.00000000E+00  0.00000000E+00  0.00000000E+00
  0.00000000E+00  0.00000000E+00  0.00000000E+00
  0.00000000E+00  0.00000000E+00  0.00000000E+00
  0.00000000E+00  0.00000000E+00  0.00000000E+00
  0.00000000E+00  0.00000000E+00  0.00000000E+00
  0.00000000E+00  0.00000000E+00  0.00000000E+00
  0.00000000E+00  0.00000000E+00  0.00000000E+00
  0.00000000E+00  0.00000000E+00  0.00000000E+00
  0.00000000E+00  0.00000000E+00  0.00000000E+00
  0.00000000E+00  0.00000000E+00  0.00000000E+00
  0.00000000E+00  0.00000000E+00  0.00000000E+00
  0.00000000E+00  0.00000000E+00  0.00000000E+00
  0.00000000E+00  0.00000000E+00  0.00000000E+00
  0.00000000E+00  0.00000000E+00  0.00000000E+00
  0.00000000E+00  0.00000000E+00  0.00000000E+00
  0.00000000E+00  0.00000000E+00  0.00000000E+00
  0.00000000E+00  0.00000000E+00  0.00000000E+00
  0.00000000E+00  0.00000000E+00  0.00000000E+00
  0.00000000E+00  0.00000000E+00  0.00000000E+00
  0.00000000E+00  0.00000000E+00  0.00000000E+00
  0.00000000E+00  0.00000000E+00  0.00000000E+00
  0.00000000E+00  0.00000000E+00  0.00000000E+00
  0.00000000E+00  0.00000000E+00  0.00000000E+00
  0.00000000E+00  0.00000000E+00  0.00000000E+00
  0.00000000E+00  0.00000000E+00  0.00000000E+00
  0.00000000E+00  0.00000000E+00  0.00000000E+00
  0.00000000E+00  0.00000000E+00  0.00000000E+00
  0.00000000E+00  0.00000000E+00  0.00000000E+00
  0.00000000E+00  0.00000000E+00  0.00000000E+00
  0.00000000E+00  0.00000000E+00  0.00000000E+00
  0.00000000E+00  0.00000000E+00  0.00000000E+00
  0.00000000E+00  0.00000000E+00  0.00000000E+00
  0.00000000E+00  0.00000000E+00  0.00000000E+00
  0.00000000E+00  0.00000000E+00  0.00000000E+00
  0.00000000E+00  0.00000000E+00  0.00000000E+00
  0.00000000E+00  0.00000000E+00  0.00000000E+00
  0.00000000E+00  0.00000000E+00  0.00000000E+00
  0.00000000E+00  0.00000000E+00  0.00000000E+00
  0.00000000E+00  0.00000000E+00  0.00000000E+00
  0.00000000E+00  0.00000000E+00  0.00000000E+00
  0.00000000E+00  0.00000000E+00  0.00000000E+00
  0.00000000E+00  0.00000000E+00  0.00000000E+00
  0.00000000E+00  0.00000000E+00  0.00000000E+00
  0.00000000E+00  0.00000000E+00  0.00000000E+00
  0.00000000E+00  0.00000000E+00  0.00000000E+00
  0.00000000E+00  0.00000000E+00  0.00000000E+00
  0.00000000E+00  0.00000000E+00  0.00000000E+00
  0.00000000E+00  0.00000000E+00  0.00000000E+00
  0.00000000E+00  0.00000000E+00  0.00000000E+00
  0.00000000E+00  0.00000000E+00  0.00000000E+00
  0.00000000E+00  0.00000000E+00  0.00000000E+00
  0.00000000E+00  0.00000000E+00  0.00000000E+00
  0.00000000E+00  0.00000000E+00  0.00000000E+00
  0.00000000E+00  0.00000000E+00  0.00000000E+00
  0.00000000E+00  0.00000000E+00  0.00000000E+00
  0.00000000E+00  0.00000000E+00  0.00000000E+00
  0.00000000E+00  0.00000000E+00  0.00000000E+00
  0.00000000E+00  0.00000000E+00  0.00000000E+00
  0.00000000E+00  0.00000000E+00  0.00000000E+00
  0.00000000E+00  0.00000000E+00  0.00000000E+00
  0.00000000E+00  0.00000000E+00  0.00000000E+00
  0.00000000E+00  0.00000000E+00  0.00000000E+00
  0.00000000E+00  0.00000000E+00  0.00000000E+00
  0.00000000E+00  0.00000000E+00  0.00000000E+00
  0.00000000E+00  0.00000000E+00  0.00000000E+00
  0.00000000E+00  0.00000000E+00  0.00000000E+00
  0.00000000E+00  0.00000000E+00  0.00000000E+00
  0.00000000E+00  0.00000000E+00  0.00000000E+00
