# algorithm
ALGO  =  All

# accuracy
PREC   =  Normal
LREAL  =  Auto
EDIFF  =  1e-05
ENCUT  =  400.0
LASPH  =  True
NELM   =  100

# ionic relaxation
ISIF    =  2
IBRION  =  2
EDIFFG  =  -0.03
NSW     =  300

# occupation
ISMEAR  =  0
SIGMA   =  0.1

# spin
ISPIN  =  2

# IO control
LWAVE   =  True
LCHARG  =  False
ISTRAT = 1
IGHARG = 1

# analyzer
LORBIT  =  10

# hybrid functional
LHFCALC   =  True
PRECFOCK  =  Fast
AEXX      =  0.36
HFSCREEN  =  0.2
TIME      =  0.4

# parallel
KPAR  =  4