Zn54 O55                                
    1.000000000000000     
     9.7481175735000001    0.0000000000000000    0.0000000000000000
    -4.8740587867000000    8.4421174577000002    0.0000000000000000
     0.0000000000000000    0.0000000000000000   15.6316036913000005
   Zn   O 
    54    55
Direct
     0.1111727053174946    0.2219593537428990    0.9997140019206815
     0.1165973315465132    0.2213960688266658    0.3329502916258324
     0.1112836946378233    0.2222050903891460    0.6664591859650351
     0.1112507349224728    0.5557476115541292    0.9999263130511828
     0.1128549268502386    0.5566754508699039    0.3333409897279200
     0.1117423812997061    0.5559215666526065    0.6669474949683901
     0.1113140737409135    0.8896518395848774    0.9997029365216065
     0.1171622217327174    0.8960040705432167    0.3328726524218665
     0.1114940201480937    0.8892648440024562    0.6664456574113498
     0.4442315456338333    0.2222551383684588    0.0000795577390436
     0.4578753326129270    0.2291550667536549    0.3369528078429758
     0.4444903058447364    0.2223275116836048    0.6669621838724236
     0.4438051365350476    0.5552725667932850    0.9999485488723288
     0.4446012105296985    0.5553333707543024    0.3331069863776663
     0.4437529456770964    0.5553930792632034    0.6667778387240059
     0.4438650264006955    0.8886901625878731    0.9999410824829548
     0.4447289227922366    0.8895052471015550    0.3331348798827407
     0.4438591955050754    0.8883935610033369    0.6668014444843211
     0.7776318627228826    0.2221427816548872    0.9996028943206853
     0.7759913761066607    0.2277836619176660    0.3359334266704321
     0.7782564214867562    0.2221554456048719    0.6671893092913490
     0.7777361548016285    0.5557828845051350    0.9996145559705641
     0.7762201140366571    0.5493069756213226    0.3358847492458309
     0.7784034416244751    0.5562170513879476    0.6672360776893755
     0.7744832753989533    0.8873056248198441    0.9950735356838748
     0.7746636216692808    0.8873854637530328    0.3347865846841335
     0.7781500223467861    0.8890609731811124    0.6666262042623617
     0.2242761921849263    0.1127481949074625    0.1693794516943771
     0.2243650289965064    0.1122936085260418    0.4998703707994989
     0.2222635498366784    0.1112359878522544    0.8330445346382475
     0.2199183484135747    0.4433304355469017    0.1665677422828459
     0.2222224071782266    0.4443163471729021    0.4997734121837525
     0.2220113370630268    0.4443212118370455    0.8334346417482108
     0.2201926023004197    0.7775129818161564    0.1665647978007995
     0.2222416765547135    0.7780036945684580    0.4997752309116879
     0.2220391060623222    0.7778337270960467    0.8334703939903266
     0.5547947040586971    0.1109582437809128    0.1666335708744911
     0.5562224645113883    0.1101138083667992    0.5018577082248645
     0.5553049781285353    0.1110741498971486    0.8333462271810533
     0.5550534050906039    0.4447897341485144    0.1666074650049435
     0.5564040764945027    0.4463311166840512    0.5018448207247140
     0.5554304267718094    0.4443905422963540    0.8333496164399816
     0.5505221095363689    0.7754497373464088    0.1654852305653387
     0.5551970380091530    0.7776170358865316    0.5003869462058745
     0.5542130509690029    0.7770967986594407    0.8318743940603812
     0.8832243797083263    0.1055973375492246    0.1627309579747995
     0.8899369407928450    0.1115187807257454    0.4998190979091101
     0.8893908511044920    0.1117548207347419    0.8326884458885830
     0.8885752914369710    0.4446294331800102    0.1662178853582262
     0.8903076021978821    0.4452228159302490    0.5015964220135083
     0.8891099482151628    0.4446192077443213    0.8334596501620342
     0.8838289296457881    0.7785959775667466    0.1628632783423835
     0.8902205046252182    0.7786015520653501    0.4998182725426414
     0.8894722386261914    0.7778203662399517    0.8327365510350911
     0.9830800540584251    0.9924078592217286    0.2365247537577004
     0.1110704929491047    0.2231097970424756    0.1263476848229208
     0.1119176952302311    0.2219791968373331    0.4602948886466654
     0.1113281804071938    0.2224164651219165    0.7933373176423812
     0.1102972510273030    0.5555614327973472    0.1271015316108659
     0.1112348677813328    0.5556415466802610    0.4604309798542383
     0.1112241237318909    0.5557172053270469    0.7937762891409961
     0.1113924956846000    0.8890806887480647    0.1263397938727042
     0.1121296801304286    0.8901773550915998    0.4602814353944417
     0.1114330958645979    0.8890983331276566    0.7933561454426280
     0.4448581248180988    0.2228543927906037    0.1270850306352987
     0.4486986054800286    0.2244533710399483    0.4634539598637087
     0.4444576939493896    0.2222865009629187    0.7938448708887841
     0.4416125118804131    0.5531128325620495    0.1270582893122404
     0.4448201581291507    0.5556683551526693    0.4603971710328612
     0.4437668935431068    0.5546918821978879    0.7934165837834750
     0.4418150003801699    0.8891898899416808    0.1270391878405159
     0.4448629999338931    0.8892221449016279    0.4603999285759346
     0.4437877461346412    0.8891380580657117    0.7934454655093803
     0.7772967490577299    0.2222353875658414    0.1269740925062459
     0.7783279624683979    0.2232043853468164    0.4619836495942257
     0.7776995193875722    0.2224391187669983    0.7939635166296016
     0.7775099986737033    0.5559764008787511    0.1270109909252121
     0.7784016929516721    0.5553245113058555    0.4619411846238863
     0.7778169772208281    0.5554748358093863    0.7939775668155370
     0.7644524718486363    0.8824235589423572    0.1195570811132799
     0.7776412168142182    0.8887857240358580    0.4609753314026798
     0.7777229050636688    0.8889204391869293    0.7936494619915460
     0.2440525555390693    0.1223579981028909    0.2983640469911833
     0.2226225969418036    0.1113998024382666    0.6270740837942553
     0.2225187005371393    0.1114935155904132    0.9598692553366115
     0.2224710242841015    0.4441482968177096    0.2938524864223247
     0.2219771456701486    0.4443839650316885    0.6267822191361165
     0.2215589015206885    0.4441129327651943    0.9602383338841218
     0.2225733584084102    0.7787029601912664    0.2938960027875971
     0.2221050219542449    0.7776681664667450    0.6268042455453853
     0.2215873163992055    0.7777247197259678    0.9602410492106132
     0.5590467400385782    0.1115105896452701    0.2938111993010599
     0.5558382376930057    0.1108731117801252    0.6282980635774575
     0.5553834154677689    0.1110725121598648    0.9604253858142718
     0.5591310942806474    0.4478937004171118    0.2937929269622302
     0.5559963719009609    0.4451048503311216    0.6282752945736477
     0.5554454069199642    0.4445969739494467    0.9604158931643680
     0.5553856315219565    0.7777471879002331    0.2932021892007547
     0.5555777737150935    0.7777723692136478    0.6272941925551482
     0.5512579653946875    0.7756857513603427    0.9581428674206953
     0.8854188748011657    0.1166631282486840    0.2982768284230634
     0.8890488864334054    0.1111545781532784    0.6269682647121313
     0.8891795538035678    0.1119093490899109    0.9594645608183381
     0.8906704053784830    0.4456655903766650    0.2935991125226206
     0.8892319084724241    0.4446114154060136    0.6280222145920098
     0.8888236243920409    0.4444922091429324    0.9605372732317417
     0.8860972329175539    0.7697012589464776    0.2980394883081914
     0.8891816331439742    0.7779747760620538    0.6269972323207728
     0.8892611570347482    0.7775536353905880    0.9594360774946724
 
  0.00000000E+00  0.00000000E+00  0.00000000E+00
  0.00000000E+00  0.00000000E+00  0.00000000E+00
  0.00000000E+00  0.00000000E+00  0.00000000E+00
  0.00000000E+00  0.00000000E+00  0.00000000E+00
  0.00000000E+00  0.00000000E+00  0.00000000E+00
  0.00000000E+00  0.00000000E+00  0.00000000E+00
  0.00000000E+00  0.00000000E+00  0.00000000E+00
  0.00000000E+00  0.00000000E+00  0.00000000E+00
  0.00000000E+00  0.00000000E+00  0.00000000E+00
  0.00000000E+00  0.00000000E+00  0.00000000E+00
  0.00000000E+00  0.00000000E+00  0.00000000E+00
  0.00000000E+00  0.00000000E+00  0.00000000E+00
  0.00000000E+00  0.00000000E+00  0.00000000E+00
  0.00000000E+00  0.00000000E+00  0.00000000E+00
  0.00000000E+00  0.00000000E+00  0.00000000E+00
  0.00000000E+00  0.00000000E+00  0.00000000E+00
  0.00000000E+00  0.00000000E+00  0.00000000E+00
  0.00000000E+00  0.00000000E+00  0.00000000E+00
  0.00000000E+00  0.00000000E+00  0.00000000E+00
  0.00000000E+00  0.00000000E+00  0.00000000E+00
  0.00000000E+00  0.00000000E+00  0.00000000E+00
  0.00000000E+00  0.00000000E+00  0.00000000E+00
  0.00000000E+00  0.00000000E+00  0.00000000E+00
  0.00000000E+00  0.00000000E+00  0.00000000E+00
  0.00000000E+00  0.00000000E+00  0.00000000E+00
  0.00000000E+00  0.00000000E+00  0.00000000E+00
  0.00000000E+00  0.00000000E+00  0.00000000E+00
  0.00000000E+00  0.00000000E+00  0.00000000E+00
  0.00000000E+00  0.00000000E+00  0.00000000E+00
  0.00000000E+00  0.00000000E+00  0.00000000E+00
  0.00000000E+00  0.00000000E+00  0.00000000E+00
  0.00000000E+00  0.00000000E+00  0.00000000E+00
  0.00000000E+00  0.00000000E+00  0.00000000E+00
  0.00000000E+00  0.00000000E+00  0.00000000E+00
  0.00000000E+00  0.00000000E+00  0.00000000E+00
  0.00000000E+00  0.00000000E+00  0.00000000E+00
  0.00000000E+00  0.00000000E+00  0.00000000E+00
  0.00000000E+00  0.00000000E+00  0.00000000E+00
  0.00000000E+00  0.00000000E+00  0.00000000E+00
  0.00000000E+00  0.00000000E+00  0.00000000E+00
  0.00000000E+00  0.00000000E+00  0.00000000E+00
  0.00000000E+00  0.00000000E+00  0.00000000E+00
  0.00000000E+00  0.00000000E+00  0.00000000E+00
  0.00000000E+00  0.00000000E+00  0.00000000E+00
  0.00000000E+00  0.00000000E+00  0.00000000E+00
  0.00000000E+00  0.00000000E+00  0.00000000E+00
  0.00000000E+00  0.00000000E+00  0.00000000E+00
  0.00000000E+00  0.00000000E+00  0.00000000E+00
  0.00000000E+00  0.00000000E+00  0.00000000E+00
  0.00000000E+00  0.00000000E+00  0.00000000E+00
  0.00000000E+00  0.00000000E+00  0.00000000E+00
  0.00000000E+00  0.00000000E+00  0.00000000E+00
  0.00000000E+00  0.00000000E+00  0.00000000E+00
  0.00000000E+00  0.00000000E+00  0.00000000E+00
  0.00000000E+00  0.00000000E+00  0.00000000E+00
  0.00000000E+00  0.00000000E+00  0.00000000E+00
  0.00000000E+00  0.00000000E+00  0.00000000E+00
  0.00000000E+00  0.00000000E+00  0.00000000E+00
  0.00000000E+00  0.00000000E+00  0.00000000E+00
  0.00000000E+00  0.00000000E+00  0.00000000E+00
  0.00000000E+00  0.00000000E+00  0.00000000E+00
  0.00000000E+00  0.00000000E+00  0.00000000E+00
  0.00000000E+00  0.00000000E+00  0.00000000E+00
  0.00000000E+00  0.00000000E+00  0.00000000E+00
  0.00000000E+00  0.00000000E+00  0.00000000E+00
  0.00000000E+00  0.00000000E+00  0.00000000E+00
  0.00000000E+00  0.00000000E+00  0.00000000E+00
  0.00000000E+00  0.00000000E+00  0.00000000E+00
  0.00000000E+00  0.00000000E+00  0.00000000E+00
  0.00000000E+00  0.00000000E+00  0.00000000E+00
  0.00000000E+00  0.00000000E+00  0.00000000E+00
  0.00000000E+00  0.00000000E+00  0.00000000E+00
  0.00000000E+00  0.00000000E+00  0.00000000E+00
  0.00000000E+00  0.00000000E+00  0.00000000E+00
  0.00000000E+00  0.00000000E+00  0.00000000E+00
  0.00000000E+00  0.00000000E+00  0.00000000E+00
  0.00000000E+00  0.00000000E+00  0.00000000E+00
  0.00000000E+00  0.00000000E+00  0.00000000E+00
  0.00000000E+00  0.00000000E+00  0.00000000E+00
  0.00000000E+00  0.00000000E+00  0.00000000E+00
  0.00000000E+00  0.00000000E+00  0.00000000E+00
  0.00000000E+00  0.00000000E+00  0.00000000E+00
  0.00000000E+00  0.00000000E+00  0.00000000E+00
  0.00000000E+00  0.00000000E+00  0.00000000E+00
  0.00000000E+00  0.00000000E+00  0.00000000E+00
  0.00000000E+00  0.00000000E+00  0.00000000E+00
  0.00000000E+00  0.00000000E+00  0.00000000E+00
  0.00000000E+00  0.00000000E+00  0.00000000E+00
  0.00000000E+00  0.00000000E+00  0.00000000E+00
  0.00000000E+00  0.00000000E+00  0.00000000E+00
  0.00000000E+00  0.00000000E+00  0.00000000E+00
  0.00000000E+00  0.00000000E+00  0.00000000E+00
  0.00000000E+00  0.00000000E+00  0.00000000E+00
  0.00000000E+00  0.00000000E+00  0.00000000E+00
  0.00000000E+00  0.00000000E+00  0.00000000E+00
  0.00000000E+00  0.00000000E+00  0.00000000E+00
  0.00000000E+00  0.00000000E+00  0.00000000E+00
  0.00000000E+00  0.00000000E+00  0.00000000E+00
  0.00000000E+00  0.00000000E+00  0.00000000E+00
  0.00000000E+00  0.00000000E+00  0.00000000E+00
  0.00000000E+00  0.00000000E+00  0.00000000E+00
  0.00000000E+00  0.00000000E+00  0.00000000E+00
  0.00000000E+00  0.00000000E+00  0.00000000E+00
  0.00000000E+00  0.00000000E+00  0.00000000E+00
  0.00000000E+00  0.00000000E+00  0.00000000E+00
  0.00000000E+00  0.00000000E+00  0.00000000E+00
  0.00000000E+00  0.00000000E+00  0.00000000E+00
  0.00000000E+00  0.00000000E+00  0.00000000E+00
  0.00000000E+00  0.00000000E+00  0.00000000E+00
