Nd1 Zn96 O96
1.0
  12.9974900980    0.0000000000    0.0000000000
  -6.4987450490   11.2561566103    0.0000000000
   0.0000000000    0.0000000000   15.6316036913
Zn O Nd
96 96 1
direct
   0.0833333333    0.1666666667    0.0001473939 Zn
   0.0830081168    0.1686354870    0.3360842486 Zn
   0.0833333333    0.1666666667    0.6668140605 Zn
   0.0833333333    0.4166666667    0.0001473939 Zn
   0.0833333333    0.4166666667    0.3334807272 Zn
   0.0833333333    0.4166666667    0.6668140605 Zn
   0.0833333333    0.6666666667    0.0001473939 Zn
   0.0833333333    0.6666666667    0.3334807272 Zn
   0.0833333333    0.6666666667    0.6668140605 Zn
   0.0833333333    0.9166666667    0.0001473939 Zn
   0.0811669135    0.9155996810    0.3349104976 Zn
   0.0833333333    0.9166666667    0.6668140605 Zn
   0.3333333333    0.1666666667    0.0001473939 Zn
   0.3333333333    0.1666666667    0.3334807272 Zn
   0.3333333333    0.1666666667    0.6668140605 Zn
   0.3333333333    0.4166666667    0.0001473939 Zn
   0.3333333333    0.4166666667    0.3334807272 Zn
   0.3333333333    0.4166666667    0.6668140605 Zn
   0.3333333333    0.6666666667    0.0001473939 Zn
   0.3333333333    0.6666666667    0.3334807272 Zn
   0.3333333333    0.6666666667    0.6668140605 Zn
   0.3333333333    0.9166666667    0.0001473939 Zn
   0.3333333333    0.9166666667    0.3334807272 Zn
   0.3333333333    0.9166666667    0.6668140605 Zn
   0.5833333333    0.1666666667    0.0001473939 Zn
   0.5833333333    0.1666666667    0.3334807272 Zn
   0.5833333333    0.1666666667    0.6668140605 Zn
   0.5833333333    0.4166666667    0.0001473939 Zn
   0.5833333333    0.4166666667    0.3334807272 Zn
   0.5833333333    0.4166666667    0.6668140605 Zn
   0.5833333333    0.6666666667    0.0001473939 Zn
   0.5833333333    0.6666666667    0.3334807272 Zn
   0.5833333333    0.6666666667    0.6668140605 Zn
   0.5833333333    0.9166666667    0.0001473939 Zn
   0.5833333333    0.9166666667    0.3334807272 Zn
   0.5833333333    0.9166666667    0.6668140605 Zn
   0.8333333333    0.1666666667    0.0001473939 Zn
   0.8333333333    0.1666666667    0.3334807272 Zn
   0.8333333333    0.1666666667    0.6668140605 Zn
   0.8333333333    0.4166666667    0.0001473939 Zn
   0.8333333333    0.4166666667    0.3334807272 Zn
   0.8333333333    0.4166666667    0.6668140605 Zn
   0.8333333333    0.6666666667    0.0001473939 Zn
   0.8333333333    0.6666666667    0.3334807272 Zn
   0.8333333333    0.6666666667    0.6668140605 Zn
   0.8333333333    0.9166666667    0.0001473939 Zn
   0.8310289086    0.9180151238    0.3361444821 Zn
   0.8333333333    0.9166666667    0.6668140605 Zn
   0.1551505158    0.0792638571    0.1749503052 Zn
   0.1666666667    0.0833333333    0.5001473939 Zn
   0.1666666667    0.0833333333    0.8334807272 Zn
   0.1666666667    0.3333333333    0.1668140605 Zn
   0.1666666667    0.3333333333    0.5001473939 Zn
   0.1666666667    0.3333333333    0.8334807272 Zn
   0.1666666667    0.5833333333    0.1668140605 Zn
   0.1666666667    0.5833333333    0.5001473939 Zn
   0.1666666667    0.5833333333    0.8334807272 Zn
   0.1666666667    0.8333333333    0.1668140605 Zn
   0.1666666667    0.8333333333    0.5001473939 Zn
   0.1666666667    0.8333333333    0.8334807272 Zn
   0.4166666667    0.0833333333    0.1668140605 Zn
   0.4166666667    0.0833333333    0.5001473939 Zn
   0.4166666667    0.0833333333    0.8334807272 Zn
   0.4166666667    0.3333333333    0.1668140605 Zn
   0.4166666667    0.3333333333    0.5001473939 Zn
   0.4166666667    0.3333333333    0.8334807272 Zn
   0.4166666667    0.5833333333    0.1668140605 Zn
   0.4166666667    0.5833333333    0.5001473939 Zn
   0.4166666667    0.5833333333    0.8334807272 Zn
   0.4166666667    0.8333333333    0.1668140605 Zn
   0.4166666667    0.8333333333    0.5001473939 Zn
   0.4166666667    0.8333333333    0.8334807272 Zn
   0.6666666667    0.0833333333    0.1668140605 Zn
   0.6666666667    0.0833333333    0.5001473939 Zn
   0.6666666667    0.0833333333    0.8334807272 Zn
   0.6666666667    0.3333333333    0.1668140605 Zn
   0.6666666667    0.3333333333    0.5001473939 Zn
   0.6666666667    0.3333333333    0.8334807272 Zn
   0.6666666667    0.5833333333    0.1668140605 Zn
   0.6666666667    0.5833333333    0.5001473939 Zn
   0.6666666667    0.5833333333    0.8334807272 Zn
   0.6666666667    0.8333333333    0.1668140605 Zn
   0.6666666667    0.8333333333    0.5001473939 Zn
   0.6666666667    0.8333333333    0.8334807272 Zn
   0.9158283446    0.0776936702    0.1603418322 Zn
   0.9166666667    0.0833333333    0.5001473939 Zn
   0.9166666667    0.0833333333    0.8334807272 Zn
   0.9166666667    0.3333333333    0.1668140605 Zn
   0.9166666667    0.3333333333    0.5001473939 Zn
   0.9166666667    0.3333333333    0.8334807272 Zn
   0.9166666667    0.5833333333    0.1668140605 Zn
   0.9166666667    0.5833333333    0.5001473939 Zn
   0.9166666667    0.5833333333    0.8334807272 Zn
   0.9248345034    0.8278012086    0.1640560090 Zn
   0.9166666667    0.8333333333    0.5001473939 Zn
   0.9166666667    0.8333333333    0.8334807272 Zn
   0.0852083255    0.1665648606    0.1269096306 O
   0.0833333333    0.1666666667    0.4604859395 O
   0.0833333333    0.1666666667    0.7938192728 O
   0.0833333333    0.4166666667    0.1271526061 O
   0.0833333333    0.4166666667    0.4604859395 O
   0.0833333333    0.4166666667    0.7938192728 O
   0.0833333333    0.6666666667    0.1271526061 O
   0.0833333333    0.6666666667    0.4604859395 O
   0.0833333333    0.6666666667    0.7938192728 O
   0.0867032416    0.9173246822    0.1229720868 O
   0.0833333333    0.9166666667    0.4604859395 O
   0.0833333333    0.9166666667    0.7938192728 O
   0.3333333333    0.1666666667    0.1271526061 O
   0.3333333333    0.1666666667    0.4604859395 O
   0.3333333333    0.1666666667    0.7938192728 O
   0.3333333333    0.4166666667    0.1271526061 O
   0.3333333333    0.4166666667    0.4604859395 O
   0.3333333333    0.4166666667    0.7938192728 O
   0.3333333333    0.6666666667    0.1271526061 O
   0.3333333333    0.6666666667    0.4604859395 O
   0.3333333333    0.6666666667    0.7938192728 O
   0.3333333333    0.9166666667    0.1271526061 O
   0.3333333333    0.9166666667    0.4604859395 O
   0.3333333333    0.9166666667    0.7938192728 O
   0.5833333333    0.1666666667    0.1271526061 O
   0.5833333333    0.1666666667    0.4604859395 O
   0.5833333333    0.1666666667    0.7938192728 O
   0.5833333333    0.4166666667    0.1271526061 O
   0.5833333333    0.4166666667    0.4604859395 O
   0.5833333333    0.4166666667    0.7938192728 O
   0.5833333333    0.6666666667    0.1271526061 O
   0.5833333333    0.6666666667    0.4604859395 O
   0.5833333333    0.6666666667    0.7938192728 O
   0.5833333333    0.9166666667    0.1271526061 O
   0.5833333333    0.9166666667    0.4604859395 O
   0.5833333333    0.9166666667    0.7938192728 O
   0.8333333333    0.1666666667    0.1271526061 O
   0.8333333333    0.1666666667    0.4604859395 O
   0.8333333333    0.1666666667    0.7938192728 O
   0.8333333333    0.4166666667    0.1271526061 O
   0.8333333333    0.4166666667    0.4604859395 O
   0.8333333333    0.4166666667    0.7938192728 O
   0.8333333333    0.6666666667    0.1271526061 O
   0.8333333333    0.6666666667    0.4604859395 O
   0.8333333333    0.6666666667    0.7938192728 O
   0.8375937609    0.9237831132    0.1268326019 O
   0.8333333333    0.9166666667    0.4604859395 O
   0.8333333333    0.9166666667    0.7938192728 O
   0.1690363526    0.0830185909    0.2951708512 O
   0.1666666667    0.0833333333    0.6271526061 O
   0.1666666667    0.0833333333    0.9604859395 O
   0.1666666667    0.3333333333    0.2938192728 O
   0.1666666667    0.3333333333    0.6271526061 O
   0.1666666667    0.3333333333    0.9604859395 O
   0.1666666667    0.5833333333    0.2938192728 O
   0.1666666667    0.5833333333    0.6271526061 O
   0.1666666667    0.5833333333    0.9604859395 O
   0.1666666667    0.8333333333    0.2938192728 O
   0.1666666667    0.8333333333    0.6271526061 O
   0.1666666667    0.8333333333    0.9604859395 O
   0.4166666667    0.0833333333    0.2938192728 O
   0.4166666667    0.0833333333    0.6271526061 O
   0.4166666667    0.0833333333    0.9604859395 O
   0.4166666667    0.3333333333    0.2938192728 O
   0.4166666667    0.3333333333    0.6271526061 O
   0.4166666667    0.3333333333    0.9604859395 O
   0.4166666667    0.5833333333    0.2938192728 O
   0.4166666667    0.5833333333    0.6271526061 O
   0.4166666667    0.5833333333    0.9604859395 O
   0.4166666667    0.8333333333    0.2938192728 O
   0.4166666667    0.8333333333    0.6271526061 O
   0.4166666667    0.8333333333    0.9604859395 O
   0.6666666667    0.0833333333    0.2938192728 O
   0.6666666667    0.0833333333    0.6271526061 O
   0.6666666667    0.0833333333    0.9604859395 O
   0.6666666667    0.3333333333    0.2938192728 O
   0.6666666667    0.3333333333    0.6271526061 O
   0.6666666667    0.3333333333    0.9604859395 O
   0.6666666667    0.5833333333    0.2938192728 O
   0.6666666667    0.5833333333    0.6271526061 O
   0.6666666667    0.5833333333    0.9604859395 O
   0.6666666667    0.8333333333    0.2938192728 O
   0.6666666667    0.8333333333    0.6271526061 O
   0.6666666667    0.8333333333    0.9604859395 O
   0.9152410667    0.0930258446    0.2954165191 O
   0.9166666667    0.0833333333    0.6271526061 O
   0.9166666667    0.0833333333    0.9604859395 O
   0.9166666667    0.3333333333    0.2938192728 O
   0.9166666667    0.3333333333    0.6271526061 O
   0.9166666667    0.3333333333    0.9604859395 O
   0.9166666667    0.5833333333    0.2938192728 O
   0.9166666667    0.5833333333    0.6271526061 O
   0.9166666667    0.5833333333    0.9604859395 O
   0.9151921690    0.8353139471    0.2941246194 O
   0.9166666667    0.8333333333    0.6271526061 O
   0.9166666667    0.8333333333    0.9604859395 O
   0.0000000000    0.0000000000    0.2321428571 Nd
